1500 1800
979 644 1058 776 37 1004 626 426 42 1029 295 782 1019 7 895 402 263 1233 1348 638 261 975 465 1118 834 1185 324 982 1335 133 842 707 941 1192 772 49 281 1177 459 1349 913 414 981 331 1209 1438 599 1250 1110 97 1371 1248 828 943 830 718 87 116 565 1336 904 775 1420 519 1474 227 1167 490 1015 63 59 648 760 142 241 454 940 522 380 470 700 321 682 103 53 1129 578 1101 661 458 1152 278 1344 815 658 124 1036 1375 1465 282 505 302 46 106 583 1057 348 1076 1318 932 805 1155 657 1235 445 21 1319 673 993 153 292 1316 1090 549 1068 147 984 1257 1121 899 481 200 235 832 1216 783 17 325 699 912 1024 1361 1475 553 427 1435 726 690 1049 951 1229 1219 864 1490 833 370 884 1105 764 849 1204 946 894 1295 1217 156 529 390 1418 569 931 307 1182 248 622 1449 75 1077 506 58 1242 983 468 1047 1107 1405 276 57 736 1028 1285 791 1480 1412 243 1410 400 521 478 301 255 598 44 448 135 693 838 485 902 189 1178 534 371 1394 457 5 825 197 279 1275 1045 411 27 144 537 66 1002 538 649 561 827 786 686 444 180 216 1162 298 897 936 407 237 1315 709 651 746 1391 359 758 1193 214 640 985 428 1251 694 722 767 515 1052 1132 672 483 620 1232 1016 788 71 224 706 384 725 1127 885 92 1211 1215 1430 766 358 1006 520 443 1140 600 4 251 1322 687 1362 1300 759 556 1142 728 395 1451 955 848 1484 564 376 933 1228 1384 1489 1261 1201 1270 54 1 1398 456 441 994 1485 84 1466 88 846 1075 976 850 896 379 1000 1455 1440 950 814 911 429 525 817 901 225 89 347 110 405 689 1187 920 1278 929 1279 464 1297 713 1432 1291 892 303 824 1018 1296 334 1374 304 1283 1385 1496 409 362 880 910 747 511 623 1268 166 340 305 865 1207 250 836 1183 1305 1423 1108 1026 683 855 1106 595 1128 862 492 1079 1040 987 528 290 1160 1333 26 643 1012 870 352 223 83 980 995 881 740 1259 1189 326 1436 807 634 655 449 957 585 999 969 309 1277 734 784 126 1007 218 998 1414 480 466 691 1253 721 803 202 1153 312 1221 1262 653 1397 1154 249 1078 550 847 989 22 1491 238 339 332 162 1238 997 95 435 639 495 369 716 366 757 317 1130 1292 152 960 688 959 222 787 1161 306 112 1030 264 604 630 1364 212 377 401 1264 1093 1064 1056 1084 1222 1471 383 354 1220 283 1411 1473 408 1492 743 236 1197 915 543 1482 45 978 1206 30 559 469 68 1226 1298 1017 115 1013 1273 1031 685 119 1148 868 181 322 1111 748 498 415 186 1274 567 349 1066 819 1460 1330 903 1081 935 11 571 1337 1447 6 163 1354 1260 1035 392 577 50 813 962 267 541 231 588 977 450 442 632 1092 712 516 393 964 130 1342 1147 1246 839 794 1470 1269 1481 1287 601 160 695 887 572 1445 745 624 268 614 666 176 581 381 455 970 642 774 891 482 1359 1136 234 1116 1254 140 161 822 502 1458 299 159 1180 178 773 213 385 761 530 108 1431 424 858 1124 508 1119 938 551 182 990 1401 15 1390 164 916 287 1417 1472 420 357 754 215 735 631 185 1122 388 338 818 859 820 208 335 220 365 374 203 1328 1479 265 122 13 845 1402 701 797 679 1073 446 1307 474 1113 963 1067 1214 1408 1309 744 73 863 330 1001 907 20 260 1091 514 67 844 1174 64 1172 477 1062 145 1446 922 573 1483 1096 1290 1271 1434 656 240 1244 592 329 1133 596 1421 1032 1302 793 351 221 194 475 425 29 563 1010 1194 346 1145 719 1426 102 996 72 652 114 262 56 562 93 1463 127 373 677 1351 540 967 389 291 714 1320 1338 355 723 692 175 696 937 273 1252 256 1188 195 591 1304 149 1347 1131 628 24 345 69 39 60 778 837 547 1276 1461 1280 1094 313 1392 986 386 670 953 1048 320 991 1203 1023 467 1109 285 78 799 31 762 177 698 1419 770 1236 1243 674 1437 965 768 167 1387 170 148 829 1240 816 637 737 1025 1468 319 74 952 1126 98 1399 1095 510 1141 1416 517 607 1065 889 625 711 397 1428 1355 136 410 1323 934 1009 790 487 1138 1069 1358 209 1406 157 453 32 266 800 557 873 942 1055 641 129 344 861 109 1284 1488 473 1450 461 1210 618 869 179 1356 1452 729 710 47 589 1063 526 1376 966 763 664 55 635 113 1011 742 128 704 165 546 580 854 856 1467 610 582 323 662 1164 900 463 1230 560 1379 488 1071 992 417 472 616 36 1223 1272 1395 668 1171 1368 16 875 460 363 328 280 79 879 1331 242 117 436 749 8 500 1321 35 811 789 590 676 1372 342 1241 462 2 34 1205 257 944 476 1051 10 684 1373 669 139 171 732 1227 1247 1339 51 1043 539 621 275 919 486 316 835 555 1326 717 1087 650 532 867 497 143 1396 727 1239 536 871 123 586 1350 1366 909 751 499 730 494 961 1310 271 741 375 207 184 1202 890 535 914 327 1191 939 1325 131 190 272 432 25 1282 703 708 1123 1265 440 1299 403 507 808 544 258 1311 1498 930 680 1400 802 874 1380 382 739 908 137 100 489 1256 38 104 1294 1301 796 1046 1199 353 398 645 211 1332 82 423 172 948 1159 360 493 356 451 1115 391 1099 1462 1237 801 230 40 174 1493 1163 85 120 232 533 579 1425 1104 606 554 1478 219 898 1494 882 118 857 378 841 798 101 755 300 663 94 294 738 765 471 1444 484 705 1415 1422 949 447 80 905 1313 70 906 1249 1044 594 1060 1150 629 1383 18 1314 91 341 840 1039 531 158 947 566 1143 121 617 812 1363 1267 217 90 396 1151 752 1059 1184 1427 1353 416 399 367 545 917 1200 724 1169 1365 1329 602 343 646 584 1281 1357 1149 421 228 1245 1289 293 52 105 860 636 548 1459 1050 1173 311 574 430 771 1453 1098 315 1053 368 1080 918 1231 43 1369 138 972 19 826 1263 792 96 968 720 619 1234 41 558 1286 12 1324 1117 23 1100 1345 244 513 394 750 431 611 1003 422 971 61 1033 1088 893 769 1103 111 1429 1175 988 1409 1386 1443 274 1120 945 1005 1424 974 1061 781 198 1027 168 659 1448 289 433 9 1146 1208 253 1476 831 1495 1042 412 597 337 806 1186 973 1343 1454 76 183 259 921 1144 576 715 154 823 1089 523 1179 809 169 1041 146 86 204 1500 681 65 1212 852 1255 1334 702 1404 1102 364 1022 1170 1370 1389 1340 777 872 350 697 254 413 753 314 1487 1074 613 206 568 1156 1218 804 1388 1439 1341 954 99 821 245 785 1112 193 665 1097 603 956 512 1352 452 1034 1086 605 297 1213 201 1346 239 361 1196 843 150 1158 1308 1486 733 888 210 173 125 372 134 1137 615 1176 1456 627 883 3 810 336 1190 667 1413 1038 310 1168 1469 1082 333 518 609 1135 928 1198 269 296 1165 252 205 1497 1442 1381 1020 542 1312 877 437 1457 247 509 1407 419 866 277 1008 678 660 927 438 196 1499 151 1378 199 434 288 406 1293 756 246 876 1054 62 14 608 1085 1181 1367 925 132 923 286 1382 1072 504 552 878 418 226 671 1125 1266 853 191 77 1224 81 491 1134 48 1083 187 780 1327 575 647 1166 1360 1477 1258 1037 1114 1021 155 958 1441 188 284 570 654 501 926 587 675 496 107 851 308 404 1157 612 524 593 795 924 731 633 779 33 1139 1464 28 1014 1377 479 1225 1317 1303 1288 141 1403 503 270 233 192 1306 1070 318 439 886 527 387 229 1433 1393 1195 
1 2 77
2 3 334
3 4 620
4 5 231
5 6 655
6 7 727
7 8 214
8 9 208
9 10 825
10 11 858
11 12 441
12 13 481
13 14 841
14 15 455
15 16 127
16 17 158
17 18 813
18 19 970
19 20 89
20 21 921
21 22 552
22 23 60
23 24 141
24 25 337
25 26 845
26 27 285
27 28 801
28 29 151
29 30 56
30 31 451
31 32 751
32 33 506
33 34 838
34 35 290
35 36 292
36 37 32
37 38 789
38 39 406
39 40 40
40 41 701
41 42 596
42 43 635
43 44 428
44 45 75
45 46 274
46 47 262
47 48 42
48 49 59
49 50 615
50 51 579
51 52 623
52 53 964
53 54 798
54 55 335
55 56 496
56 57 841
57 58 427
58 59 88
59 60 408
60 61 604
61 62 451
62 63 831
63 64 598
64 65 174
65 66 190
66 67 252
67 68 205
68 69 518
69 70 435
70 71 787
71 72 538
72 73 254
73 74 240
74 75 146
75 76 780
76 77 479
77 78 418
78 79 957
79 80 100
80 81 61
81 82 289
82 83 518
83 84 637
84 85 916
85 86 825
86 87 721
87 88 273
88 89 95
89 90 780
90 91 359
91 92 983
92 93 271
93 94 982
94 95 50
95 96 861
96 97 695
97 98 189
98 99 166
99 100 84
100 500 538
101 393 878
102 1192 763
103 372 111
104 182 760
105 975 491
106 223 665
107 1106 728
108 933 649
109 989 309
110 1360 567
111 1466 447
112 484 559
113 1315 177
114 1183 659
115 349 645
116 513 568
117 649 322
118 757 941
119 1230 484
120 1169 172
121 1045 657
122 1490 654
123 552 394
124 770 867
125 1097 94
126 757 221
127 714 927
128 1252 873
129 516 984
130 506 779
131 256 834
132 526 167
133 1179 942
134 1282 182
135 1070 459
136 1373 716
137 412 873
138 274 425
139 1196 9
140 958 268
141 935 411
142 852 509
143 602 937
144 856 263
145 892 351
146 189 408
147 425 866
148 470 500
149 284 327
150 1085 402
151 624 230
152 1341 932
153 420 142
154 421 915
155 559 213
156 506 883
157 418 394
158 783 876
159 751 802
160 691 858
161 1102 30
162 1157 407
163 179 654
164 1003 721
165 1213 879
166 558 673
167 1436 894
168 535 425
169 1068 774
170 549 432
171 1228 980
172 292 494
173 1016 141
174 613 322
175 1421 509
176 929 573
177 324 360
178 717 455
179 875 698
180 1280 230
181 1397 298
182 387 479
183 1156 235
184 1235 923
185 553 518
186 508 780
187 1216 430
188 1447 586
189 1220 948
190 224 593
191 1269 97
192 660 446
193 1234 302
194 274 767
195 1250 407
196 366 482
197 1155 337
198 921 270
199 1120 561
200 1208 427
201 1168 902
202 1453 298
203 444 931
204 1061 398
205 697 169
206 1284 58
207 1082 831
208 414 160
209 1088 424
210 426 674
211 570 327
212 1158 288
213 262 957
214 1283 454
215 1237 477
216 900 602
217 499 944
218 568 615
219 767 913
220 812 14
221 1093 647
222 740 299
223 422 779
224 886 981
225 527 159
226 1026 395
227 362 28
228 1286 242
229 1228 962
230 628 836
231 548 356
232 972 264
233 1247 844
234 420 972
235 1275 929
236 1070 60
237 567 692
238 651 594
239 483 317
240 1349 328
241 1483 340
242 1407 691
243 1143 183
244 397 397
245 1106 962
246 1280 746
247 404 947
248 678 718
249 808 112
250 864 762
251 1016 738
252 1167 554
253 891 625
254 741 711
255 510 727
256 1223 347
257 729 956
258 549 142
259 635 74
260 1213 485
261 748 929
262 450 82
263 575 859
264 1401 897
265 485 322
266 899 413
267 668 653
268 461 346
269 1314 898
270 569 269
271 933 547
272 1205 358
273 533 600
274 591 702
275 625 919
276 516 958
277 412 47
278 1493 40
279 556 235
280 593 910
281 1020 606
282 1303 655
283 347 265
284 1102 169
285 1179 979
286 880 932
287 1083 643
288 710 83
289 456 74
290 1193 310
291 1024 179
292 1465 833
293 1483 594
294 1017 47
295 1402 75
296 1338 131
297 1125 588
298 1372 985
299 907 799
300 1015 329
301 584 582
302 1164 637
303 581 633
304 1315 108
305 433 162
306 692 10
307 1440 595
308 700 836
309 801 990
310 591 416
311 783 224
312 325 110
313 632 690
314 1011 377
315 1190 240
316 571 710
317 835 819
318 1342 522
319 961 335
320 1070 26
321 833 174
322 1260 160
323 372 199
324 537 273
325 1162 918
326 1428 571
327 929 865
328 1151 457
329 364 219
330 1026 272
331 428 966
332 1470 775
333 956 422
334 1256 537
335 1130 290
336 1376 538
337 471 698
338 845 5
339 927 8
340 409 9
341 903 31
342 867 208
343 1473 75
344 1275 815
345 835 530
346 1308 623
347 477 959
348 1056 407
349 488 869
350 1020 523
351 1214 920
352 1396 166
353 563 326
354 969 144
355 1398 72
356 1343 572
357 1145 347
358 1079 469
359 1018 343
360 523 255
361 1236 691
362 671 848
363 608 419
364 944 968
365 1018 982
366 789 457
367 1429 268
368 650 577
369 635 3
370 1134 28
371 1192 353
372 1456 771
373 437 706
374 974 357
375 1083 118
376 490 504
377 1128 270
378 1382 876
379 716 384
380 911 832
381 538 606
382 561 138
383 644 635
384 587 55
385 997 991
386 429 574
387 855 208
388 583 306
389 1291 619
390 1245 31
391 547 290
392 554 706
393 762 123
394 1014 672
395 543 387
396 710 153
397 409 812
398 514 752
399 1353 518
400 1173 936
401 725 224
402 1442 722
403 450 614
404 561 581
405 654 975
406 697 272
407 1240 440
408 984 450
409 423 564
410 1311 656
411 1165 250
412 665 895
413 504 960
414 460 84
415 1094 856
416 907 529
417 799 491
418 846 746
419 433 686
420 1183 595
421 433 277
422 1144 353
423 520 169
424 703 38
425 1359 271
426 879 468
427 1282 914
428 1424 943
429 1269 1
430 1152 544
431 707 479
432 739 230
433 517 114
434 1309 62
435 759 221
436 499 101
437 898 695
438 1115 312
439 1007 6
440 1069 979
441 613 91
442 1435 500
443 464 478
444 1173 618
445 641 329
446 1384 100
447 756 248
448 977 900
449 562 679
450 1301 13
451 1336 321
452 676 455
453 1037 237
454 1130 567
455 1049 310
456 1232 221
457 609 348
458 1498 576
459 1372 726
460 1070 706
461 795 654
462 526 93
463 521 546
464 978 223
465 1371 873
466 1428 359
467 1236 796
468 901 84
469 502 641
470 821 915
471 685 877
472 1237 524
473 591 208
474 785 907
475 527 412
476 1151 1000
477 1078 214
478 1182 437
479 932 178
480 1034 89
481 549 825
482 545 167
483 1272 168
484 485 544
485 533 492
486 1072 775
487 1420 948
488 620 700
489 775 724
490 639 950
491 827 751
492 670 190
493 773 430
494 1456 451
495 645 431
496 1274 23
497 1103 30
498 665 229
499 1342 580
500 977 118
501 693 796
502 993 190
503 1361 933
504 784 722
505 665 95
506 752 39
507 554 615
508 1191 359
509 1338 888
510 913 332
511 863 321
512 925 153
513 533 524
514 1078 19
515 915 165
516 1279 194
517 1170 472
518 1078 669
519 1215 352
520 1169 360
521 677 349
522 933 537
523 1460 868
524 1029 32
525 664 169
526 552 428
527 1073 161
528 1035 834
529 1281 932
530 1234 844
531 764 613
532 534 664
533 739 925
534 1116 911
535 1424 861
536 761 903
537 774 233
538 1109 930
539 1439 143
540 779 727
541 827 683
542 1084 719
543 1004 494
544 1169 288
545 1281 429
546 681 789
547 1130 618
548 848 623
549 1198 214
550 961 559
551 714 613
552 601 611
553 1059 104
554 1359 481
555 717 337
556 943 804
557 893 169
558 1493 467
559 607 687
560 719 94
561 1437 735
562 1031 447
563 1400 848
564 922 975
565 598 130
566 1311 634
567 965 488
568 580 777
569 1500 245
570 646 260
571 1273 438
572 1282 271
573 1076 264
574 1292 261
575 1011 760
576 904 337
577 581 577
578 910 746
579 783 928
580 1175 763
581 596 26
582 906 736
583 624 406
584 1018 261
585 885 107
586 1304 544
587 768 654
588 826 974
589 750 874
590 1451 710
591 1320 482
592 1129 402
593 1136 86
594 1425 17
595 803 342
596 1042 237
597 752 402
598 856 271
599 1041 531
600 916 540
601 717 656
602 809 46
603 1202 996
604 1058 15
605 1289 84
606 1306 576
607 944 35
608 1099 613
609 1400 591
610 951 317
611 650 734
612 803 447
613 1091 429
614 1154 401
615 1388 771
616 1455 170
617 1174 758
618 1350 844
619 1271 615
620 816 465
621 1156 221
622 951 833
623 1244 304
624 794 976
625 1472 698
626 1077 805
627 1186 845
628 1366 228
629 1265 776
630 1340 751
631 1370 243
632 1320 887
633 1426 878
634 1187 947
635 1085 603
636 1061 564
637 1318 59
638 953 533
639 838 575
640 730 330
641 1467 718
642 1263 530
643 805 907
644 704 370
645 1145 538
646 1020 602
647 865 896
648 1238 931
649 1216 895
650 734 215
651 782 625
652 693 290
653 1119 710
654 1081 334
655 665 337
656 1277 712
657 836 477
658 1276 667
659 1144 151
660 917 124
661 1414 165
662 814 43
663 855 45
664 1181 503
665 678 143
666 1031 441
667 991 966
668 1238 877
669 1095 170
670 1388 215
671 1306 810
672 1479 788
673 993 626
674 914 792
675 1302 439
676 733 449
677 1378 487
678 1233 366
679 1317 72
680 1408 860
681 687 596
682 1287 946
683 805 553
684 1135 448
685 1056 115
686 1105 148
687 1312 674
688 1477 363
689 1311 818
690 1050 854
691 1495 613
692 1046 547
693 727 760
694 1459 410
695 1220 374
696 914 233
697 1351 694
698 854 920
699 1085 465
700 1000 205
701 1477 716
702 947 653
703 1037 187
704 727 378
705 1304 894
706 1423 869
707 1207 90
708 839 596
709 1289 842
710 1077 648
711 860 324
712 913 707
713 1447 751
714 1281 86
715 1007 850
716 1394 42
717 810 219
718 1426 100
719 1155 639
720 1362 484
721 1408 512
722 815 588
723 1072 461
724 1038 866
725 942 895
726 1369 713
727 1291 601
728 1201 897
729 832 713
730 962 943
731 1311 613
732 795 330
733 1037 963
734 826 178
735 863 543
736 1273 188
737 1230 381
738 1116 621
739 1280 102
740 919 363
741 801 887
742 879 406
743 1203 122
744 1325 922
745 945 88
746 947 42
747 1283 891
748 1126 824
749 1048 757
750 1227 482
751 1241 962
752 1467 459
753 1184 508
754 758 826
755 1406 1
756 1017 88
757 1244 502
758 906 145
759 1408 420
760 770 239
761 1305 828
762 1196 38
763 987 51
764 935 613
765 1304 790
766 1192 551
767 1017 466
768 1346 387
769 971 578
770 793 41
771 1131 234
772 1279 849
773 947 152
774 1309 155
775 1120 414
776 1476 853
777 1406 994
778 1269 226
779 1274 654
780 1297 563
781 984 669
782 911 453
783 1356 754
784 798 689
785 792 865
786 1117 970
787 1120 238
788 849 972
789 1382 512
790 1300 128
791 1063 417
792 1214 152
793 1200 36
794 1401 124
795 1412 270
796 900 122
797 1242 63
798 1063 681
799 1450 74
800 1426 388
801 1208 458
802 1089 749
803 1072 895
804 1102 527
805 1446 529
806 908 229
807 1423 393
808 901 824
809 1303 868
810 1023 626
811 1214 433
812 1242 23
813 1110 593
814 900 535
815 1485 798
816 829 125
817 1122 656
818 1166 244
819 1468 141
820 1106 617
821 1194 482
822 1116 987
823 1352 395
824 1149 654
825 1081 712
826 892 988
827 992 115
828 1356 580
829 1041 585
830 1223 887
831 930 673
832 1374 534
833 1267 806
834 1363 90
835 907 152
836 1485 132
837 1071 153
838 1430 81
839 1043 29
840 1157 590
841 1003 668
842 1497 652
843 1080 865
844 953 887
845 1378 30
846 1153 372
847 856 870
848 1358 148
849 1333 436
850 1181 822
851 1045 567
852 1302 636
853 986 391
854 1426 212
855 976 809
856 1056 344
857 1099 168
858 979 226
859 1064 180
860 1164 132
861 1211 662
862 1002 351
863 1241 382
864 1005 256
865 1363 893
866 1160 475
867 1432 274
868 1404 827
869 1351 595
870 1057 511
871 1083 208
872 971 699
873 1006 618
874 1414 404
875 1118 426
876 885 502
877 938 774
878 1304 870
879 882 323
880 1039 790
881 1153 202
882 976 906
883 1204 423
884 1266 101
885 1341 694
886 1232 371
887 1154 616
888 1462 564
889 1217 649
890 1115 223
891 923 778
892 984 640
893 1472 516
894 1344 793
895 1115 136
896 1149 280
897 934 649
898 1081 658
899 1454 253
900 1434 244
901 1464 263
902 1478 869
903 1046 428
904 1448 1000
905 1292 625
906 1175 519
907 1458 882
908 1096 198
909 981 288
910 1452 406
911 1324 426
912 1475 450
913 1098 159
914 1024 101
915 929 935
916 1036 906
917 941 601
918 1189 269
919 1076 310
920 1186 899
921 1321 648
922 981 813
923 1038 943
924 1233 966
925 1186 901
926 1164 470
927 1144 972
928 1121 248
929 1394 681
930 1071 335
931 1417 666
932 1242 689
933 1337 287
934 1331 238
935 1131 715
936 1313 389
937 998 970
938 1022 893
939 1257 733
940 1236 370
941 1044 377
942 1483 522
943 1374 43
944 968 726
945 1344 143
946 1274 89
947 971 447
948 1048 393
949 1280 945
950 1461 650
951 1263 591
952 1223 278
953 1053 261
954 1046 24
955 974 469
956 987 316
957 1478 219
958 1243 252
959 1092 273
960 1442 410
961 962 734
962 1096 878
963 1140 182
964 1397 820
965 1418 9
966 1173 984
967 1144 431
968 1010 920
969 1092 97
970 1436 806
971 1297 44
972 1215 1000
973 1401 483
974 1030 678
975 991 434
976 978 71
977 1429 944
978 1246 815
979 1180 901
980 1013 484
981 1264 50
982 1003 654
983 1370 37
984 1039 4
985 1207 149
986 1402 38
987 1439 557
988 1272 556
989 1106 78
990 1453 600
991 1140 61
992 1352 638
993 1008 975
994 1223 689
995 1032 998
996 1028 698
997 1085 777
998 1124 654
999 1094 473
1000 1358 19
1001 1205 403
1002 1364 270
1003 1497 218
1004 1365 735
1005 1367 488
1006 1220 20
1007 1386 338
1008 1418 775
1009 1092 989
1010 1194 695
1011 1242 926
1012 1474 713
1013 1212 646
1014 1233 834
1015 1373 883
1016 1140 415
1017 1470 170
1018 1383 741
1019 1339 39
1020 1111 829
1021 1333 180
1022 1062 667
1023 1412 797
1024 1172 628
1025 1448 252
1026 1188 41
1027 1280 127
1028 1312 956
1029 1325 230
1030 1369 985
1031 1095 907
1032 1383 359
1033 1362 743
1034 1100 727
1035 1414 319
1036 1275 337
1037 1283 770
1038 1165 437
1039 1282 828
1040 1469 495
1041 1145 372
1042 1365 587
1043 1180 800
1044 1239 848
1045 1321 919
1046 1420 629
1047 1349 329
1048 1149 726
1049 1369 230
1050 1287 464
1051 1103 169
1052 1120 697
1053 1395 721
1054 1267 566
1055 1426 627
1056 1351 760
1057 1127 159
1058 1304 644
1059 1100 504
1060 1413 329
1061 1465 489
1062 1256 541
1063 1097 713
1064 1372 754
1065 1450 799
1066 1355 798
1067 1234 301
1068 1140 503
1069 1299 338
1070 1351 708
1071 1453 82
1072 1211 229
1073 1493 586
1074 1479 717
1075 1321 499
1076 1333 138
1077 1265 464
1078 1144 663
1079 1381 335
1080 1378 130
1081 1305 98
1082 1333 764
1083 1387 574
1084 1183 821
1085 1098 977
1086 1269 967
1087 1335 940
1088 1089 810
1089 1120 425
1090 1323 283
1091 1358 488
1092 1120 47
1093 1111 405
1094 1345 358
1095 1256 129
1096 1342 807
1097 1325 536
1098 1213 523
1099 1192 150
1100 1450 531
1101 1162 82
1102 1236 424
1103 1253 512
1104 1294 780
1105 1379 222
1106 1251 839
1107 1282 641
1108 1241 429
1109 1129 837
1110 1418 68
1111 1141 224
1112 1489 35
1113 1217 145
1114 1325 617
1115 1466 693
1116 1324 448
1117 1302 372
1118 1469 876
1119 1147 338
1120 1165 653
1121 1467 961
1122 1313 865
1123 1414 168
1124 1379 125
1125 1138 849
1126 1472 221
1127 1218 857
1128 1331 889
1129 1281 957
1130 1391 589
1131 1139 983
1132 1200 46
1133 1234 11
1134 1477 231
1135 1303 364
1136 1340 654
1137 1277 208
1138 1431 946
1139 1485 284
1140 1175 584
1141 1321 960
1142 1409 34
1143 1387 124
1144 1376 737
1145 1179 160
1146 1449 546
1147 1268 836
1148 1364 573
1149 1155 694
1150 1417 385
1151 1312 820
1152 1443 282
1153 1278 246
1154 1252 399
1155 1420 363
1156 1434 521
1157 1282 11
1158 1422 742
1159 1297 94
1160 1407 37
1161 1411 412
1162 1445 163
1163 1492 601
1164 1250 253
1165 1314 32
1166 1287 320
1167 1423 884
1168 1230 710
1169 1373 234
1170 1382 268
1171 1404 963
1172 1252 653
1173 1195 591
1174 1283 731
1175 1429 873
1176 1374 719
1177 1303 975
1178 1367 671
1179 1408 19
1180 1195 141
1181 1394 488
1182 1210 822
1183 1375 612
1184 1495 753
1185 1480 759
1186 1424 560
1187 1209 817
1188 1197 841
1189 1477 110
1190 1448 919
1191 1362 839
1192 1380 317
1193 1259 605
1194 1323 934
1195 1317 816
1196 1316 5
1197 1490 356
1198 1331 899
1199 1253 508
1200 1428 743
1201 1222 703
1202 1344 819
1203 1364 295
1204 1221 724
1205 1207 302
1206 1355 532
1207 1265 532
1208 1338 933
1209 1289 831
1210 1461 855
1211 1268 298
1212 1497 602
1213 1295 506
1214 1227 633
1215 1381 697
1216 1401 55
1217 1421 145
1218 1450 940
1219 1438 980
1220 1381 485
1221 1329 553
1222 1284 648
1223 1313 879
1224 1229 620
1225 1372 33
1226 1473 604
1227 1370 969
1228 1336 213
1229 1257 549
1230 1355 118
1231 1281 745
1232 1371 498
1233 1467 44
1234 1309 367
1235 1388 372
1236 1305 624
1237 1282 520
1238 1463 160
1239 1482 556
1240 1317 967
1241 1473 809
1242 1287 187
1243 1480 806
1244 1472 157
1245 1360 792
1246 1413 859
1247 1256 735
1248 1256 75
1249 1481 313
1250 1432 530
1251 1464 805
1252 1467 687
1253 1400 979
1254 1374 186
1255 1368 991
1256 1474 705
1257 1308 549
1258 1398 124
1259 1277 883
1260 1290 185
1261 1434 805
1262 1474 118
1263 1492 67
1264 1493 429
1265 1309 642
1266 1479 603
1267 1406 290
1268 1426 44
1269 1387 267
1270 1385 904
1271 1426 683
1272 1302 610
1273 1356 608
1274 1411 306
1275 1308 203
1276 1355 420
1277 1499 799
1278 1485 431
1279 1348 946
1280 1312 166
1281 1294 576
1282 1284 554
1283 1343 626
1284 1410 896
1285 1329 593
1286 1416 250
1287 1335 482
1288 1301 198
1289 1393 744
1290 1337 534
1291 1359 109
1292 1436 654
1293 1400 491
1294 1423 242
1295 1451 896
1296 1372 568
1297 1444 435
1298 1494 280
1299 1425 308
1300 1408 700
1301 1409 450
1302 1370 746
1303 1332 276
1304 1499 410
1305 1324 210
1306 1367 555
1307 1404 380
1308 1497 231
1309 1364 356
1310 1414 456
1311 1347 842
1312 1374 25
1313 1486 75
1314 1384 72
1315 1388 879
1316 1363 66
1317 1329 879
1318 1486 689
1319 1414 54
1320 1484 281
1321 1479 131
1322 1461 113
1323 1461 239
1324 1430 536
1325 1375 448
1326 1387 336
1327 1386 716
1328 1348 145
1329 1476 26
1330 1402 773
1331 1500 712
1332 1431 450
1333 1393 371
1334 1431 569
1335 1380 137
1336 1489 372
1337 1454 704
1338 1374 870
1339 1415 788
1340 1469 994
1341 1369 278
1342 1486 999
1343 1377 404
1344 1472 841
1345 1381 627
1346 1411 229
1347 1491 633
1348 1392 861
1349 1447 947
1350 1399 905
1351 1498 86
1352 1435 248
1353 1464 377
1354 1471 728
1355 1403 436
1356 1431 471
1357 1472 887
1358 1408 484
1359 1425 135
1360 1400 328
1361 1482 493
1362 1402 625
1363 1387 824
1364 1451 644
1365 1485 185
1366 1373 542
1367 1466 263
1368 1408 706
1369 1485 979
1370 1379 673
1371 1461 869
1372 1483 795
1373 1419 675
1374 1477 613
1375 1427 779
1376 1500 724
1377 1401 471
1378 1468 749
1379 1442 157
1380 1469 814
1381 1434 903
1382 1409 629
1383 1394 249
1384 1396 285
1385 1457 672
1386 1432 215
1387 1461 78
1388 1462 392
1389 1391 202
1390 1432 968
1391 1464 542
1392 1444 40
1393 1476 851
1394 1405 346
1395 1454 207
1396 1463 994
1397 1429 618
1398 1407 25
1399 1458 773
1400 1435 106
1401 1475 590
1402 1492 974
1403 1413 487
1404 1449 880
1405 1421 632
1406 1456 649
1407 1417 145
1408 1480 50
1409 1443 453
1410 1495 492
1411 1442 883
1412 1483 521
1413 1423 617
1414 1478 933
1415 1430 714
1416 1493 82
1417 1464 92
1418 1446 635
1419 1451 497
1420 1461 939
1421 1499 346
1422 1463 693
1423 1480 765
1424 1457 532
1425 1499 32
1426 1471 458
1427 1428 545
1428 1447 360
1429 1459 541
1430 1463 825
1431 1498 751
1432 1493 266
1433 1491 400
1434 1491 553
1435 1455 590
1436 1450 659
1437 1496 578
1438 1491 720
1439 1464 90
1440 1453 39
1441 1446 413
1442 1492 376
1443 1457 507
1444 1466 58
1445 1495 320
1446 1491 929
1447 1485 470
1448 1472 300
1449 1465 796
1450 1493 614
1451 1497 342
1452 1495 42
1453 1486 443
1454 1497 253
1455 1496 864
1456 1499 101
1457 1500 419
1458 1465 77
1459 1467 466
1460 1469 613
1461 1469 845
1462 1496 538
1463 1494 217
1464 1480 538
1465 1469 17
1466 1486 298
1467 1477 88
1468 1470 504
1469 1499 653
1470 1472 17
1471 1480 721
1472 1483 232
1473 1493 304
1474 1499 77
1475 1477 310
1476 1483 426
1477 1489 916
1478 1485 524
1479 1493 716
1480 1486 60
1481 1500 523
1482 1484 604
1483 1497 569
1484 1488 295
1485 1494 515
1486 1495 465
1487 1497 306
1488 1489 781
1489 1498 994
1490 1497 68
1491 1497 967
1492 1496 550
1493 1495 230
1494 1495 19
1495 1499 329
1496 1498 123
1497 1499 439
1498 1500 580
1499 1500 419
509 518 507
797 1249 924
1147 1324 734
948 1082 798
1355 1402 344
320 642 417
76 528 1256
1330 1390 820
826 885 1281
341 530 550
1468 1475 60
1491 1495 22
403 1272 246
1289 1325 1023
370 1328 702
838 1073 513
410 709 119
522 1457 896
1372 1479 285
446 477 899
924 1116 793
488 775 841
43 685 360
1240 1489 64
113 1355 871
492 673 200
523 858 1082
151 1233 1152
290 359 1126
1434 1437 334
788 1443 243
974 1244 1368
1379 1438 887
729 938 269
486 500 579
519 1126 802
1392 1395 737
509 885 117
364 1425 745
964 1176 695
867 1483 528
1070 1319 1470
83 1149 141
543 1140 329
456 1049 740
496 1244 1253
742 1077 1424
51 581 83
1476 1488 738
1272 1273 1451
341 1173 1423
1318 1370 1243
362 1094 84
1449 1499 49
767 912 1348
32 916 246
866 1311 360
234 364 171
1144 1376 1391
1140 1232 833
116 1038 265
1415 1484 1254
1079 1207 1445
469 873 1126
1429 1469 961
797 1454 150
334 1140 1330
191 1387 301
574 1361 666
1087 1300 1157
130 360 68
772 966 1350
1038 1463 561
926 1329 1314
169 1171 1270
746 1394 947
48 1155 1450
689 1210 732
1135 1184 1280
1394 1401 879
1254 1446 193
305 688 276
1049 1441 304
127 925 501
1101 1223 555
1000 1167 296
96 1173 58
90 206 50
677 1465 1201
1240 1300 116
1490 1499 1496
298 801 735
578 1132 951
507 700 799
383 914 1332
1461 1494 438
462 1319 1063
1053 1217 881
1459 1500 1146
435 748 876
187 222 380
103 1315 1438
1456 1462 957
740 776 740
602 605 888
54 292 1473
1496 1497 629
1133 1207 1289
959 1443 535
265 705 841
1057 1423 48
1452 1495 1482
1485 1495 483
221 292 946
159 680 284
433 521 1032
1114 1189 397
1465 1498 640
109 891 1118
915 1367 299
725 987 1205
1109 1347 461
757 1481 272
1039 1430 348
577 1186 1185
1292 1449 380
1167 1220 1345
952 1039 1159
615 1308 1066
841 1282 1413
1111 1334 1440
375 471 228
1039 1045 1446
1258 1436 562
1478 1487 541
187 966 512
642 1310 1190
27 1052 509
538 575 1018
393 1104 1354
704 706 399
1262 1424 442
1195 1368 1106
681 1265 472
1233 1356 1362
1249 1463 1261
1179 1381 193
796 1192 1269
135 984 44
306 1237 1156
351 657 1044
686 852 380
824 1032 1206
550 789 556
159 557 406
1463 1471 1104
811 983 76
476 665 1399
219 1436 1203
1061 1390 625
956 1243 949
546 1080 1376
1010 1496 1388
73 276 918
1284 1427 944
398 1166 900
352 689 870
916 1095 688
467 869 329
1143 1233 734
1021 1433 1261
1343 1378 1147
1169 1367 204
47 196 663
1383 1408 1415
1467 1495 877
739 853 475
1460 1489 909
641 731 1147
1082 1498 1039
1040 1280 1487
960 1026 1322
268 790 987
1289 1393 304
931 942 555
1432 1454 862
209 573 289
594 1002 1356
1366 1414 1295
470 665 286
1148 1352 508
770 992 1283
1402 1472 610
297 671 917
818 1069 248
920 1122 41
560 1212 87
639 1396 1462
205 587 1128
203 848 719
784 1439 658
1229 1316 545
495 1009 998
1291 1368 709
1193 1306 116
179 1469 678
7 766 212
168 657 91
1346 1446 1029
686 1340 1350
1382 1409 1496
1111 1274 1437
349 1123 479
633 1464 1274
777 839 1292
747 780 16
1283 1437 28
495 888 183
398 943 547
652 1275 1222
1076 1424 373
615 1300 75
756 1107 16
838 847 72
396 801 901
1065 1437 895
602 777 530
586 1305 604
694 1416 1034
848 902 1409
889 1406 507
1115 1236 684
1195 1334 723
568 699 512
474 774 224
187 966 572
1178 1334 1443
1316 1460 10
640 1397 1030
387 567 481
515 1470 630
349 854 1367
116 838 1298
155 869 114
347 719 235
173 240 992
412 1495 1309
86 1297 484
977 1079 450
1202 1270 576
223 353 330
325 1323 1229
432 1369 212
1463 1495 458
1199 1240 353
858 902 1155
1401 1459 1426
785 1326 479
1199 1374 98
845 1002 646
614 1457 1001
303 1297 469
1266 1432 621
260 1125 155
58 1381 710
758 1223 172
1239 1416 530
1084 1198 556
155 802 1360
894 959 28
554 884 1421
146 1214 870
931 1024 798
423 520 1059
791 1252 1395
672 777 1211
35 1277 1283
480 1293 873
707 1277 924
3 1323 527
278 1035 116
1259 1388 447
320 1229 1117
1367 1387 1460
1214 1339 378
917 1021 751
118 264 977
343 625 649
387 1432 1169
1171 1429 741
669 1139 548
781 1186 97
1439 1475 247
359 474 1461
206 667 571
1243 1310 338
1018 1446 805
627 990 1016
667 724 447
892 1423 1234
1141 1214 1253
739 1142 608
1321 1474 1033
516 1435 429
405 1173 118
1212 1489 170
300 1141 1172
650 1071 208
1366 1429 258
884 1179 346
183 1081 926
827 1195 673
107 436 736
621 1282 671
242 1493 578
433 1063 829
677 1494 334
580 1221 356
1130 1288 991
106 992 927
1286 1485 637
1016 1285 1481
336 805 1283
1371 1398 1488
317 709 407
307 448 523
966 1114 125
737 1042 143
429 525 876
412 569 892
477 1184 311
794 910 685
895 954 794
112 424 1325
1405 1465 1200
555 761 606
506 1225 1038
111 1405 695
1084 1091 1092
1075 1402 1385
264 1002 1018
977 1365 1337
783 873 193
1199 1450 934
1171 1360 1402
273 580 665
464 1183 882
562 613 448
1329 1413 1216
1494 1497 949
68 664 626
427 535 1132
171 842 422
1056 1491 704
616 930 1430
1223 1260 532
702 1188 1359
377 737 1202
894 1484 1202
650 830 1105
863 1368 1495
978 1034 415
1075 1178 1381
400 646 57
1155 1189 581
1290 1342 767
391 410 716
1247 1307 1492
1467 1496 1325
999 1305 270
715 1001 766
141 1495 848
891 1238 1189
773 1458 1334
892 1083 1475
1272 1377 1313
1494 1498 169
1477 1483 1410
103 1408 892
694 996 510
1079 1153 405
1391 1402 443
599 1193 760
1235 1484 1045
1256 1321 1254
1066 1292 1133
1198 1400 586
332 674 1376
427 913 119
568 1104 361
64 1152 239
284 413 641
867 1478 766
1483 1497 886
195 546 107
1489 1496 1303
938 1375 850
742 1163 886
1099 1490 1166
148 433 608
84 496 576
1234 1246 1146
1175 1272 540
1135 1136 230
769 1390 320
84 1380 1347
738 880 1249
1273 1435 120
633 1447 1451
209 1273 770
472 1081 502
361 1490 1167
493 1095 50
1262 1338 631
1396 1458 1033
694 1472 959
1205 1471 10
607 958 860
845 1384 927
709 1303 1101
81 314 1274
1108 1450 104
333 642 1327
26 294 1499
145 247 759
468 940 405
183 234 1258
612 689 322
304 940 1197
783 1006 1167
1400 1468 1199
651 785 938
895 896 465
867 874 972
128 756 1189
944 1409 142
644 699 1150
55 71 445
167 232 96
323 926 114
1167 1243 358
627 705 737
427 1047 9
394 1400 1136
1066 1069 890
807 1195 263
255 360 1079
1203 1260 1060
1087 1459 161
1196 1271 1407
551 1187 1456
1050 1415 1184
868 931 1110
1431 1485 694
1482 1497 375
452 1002 657
1078 1381 1419
753 951 847
1263 1428 160
84 410 754
1204 1236 1464
371 1272 972
472 1444 283
876 1147 449
1194 1260 1439
1395 1498 1223
740 1243 37
1341 1381 945
1292 1447 1460
1167 1471 42
1497 1499 1054
962 1178 965
275 871 1351
671 837 530
1144 1316 1032
469 975 1044
913 1251 1145
1450 1452 908
167 787 122
115 492 1229
1008 1139 601
507 1477 1119
1047 1224 1455
1121 1177 214
896 1184 819
1266 1419 1399
307 351 558
149 397 760
978 1235 675
42 246 128
1321 1433 588
425 1396 141
245 800 1022
630 754 669
1171 1476 592
343 1035 778
835 1045 290
514 1021 286
926 1031 1489
153 1475 955
234 784 1194
725 1374 854
1013 1303 167
1021 1155 1282
601 1122 460
1027 1316 1467
516 1018 1197
98 201 1157
652 1409 1239
959 1165 1086
289 1181 1488
203 1109 892
20 115 18
975 1492 1451
1197 1344 1255
1023 1044 1269
911 938 893
733 926 666
845 999 1469
1175 1284 1280
301 1351 570
115 338 95
861 1429 684
864 1483 878
613 1036 645
792 1403 314
778 878 522
128 251 23
958 1248 552
714 1218 1155
19 415 1308
911 1363 1088
805 1359 678
1493 1496 718
1338 1390 268
447 1145 1136
331 721 604
164 1307 575
1418 1468 748
755 853 638
1251 1284 340
1012 1039 253
320 1047 404
508 1411 286
292 722 107
613 726 188
88 524 215
990 1040 47
975 1320 744
1362 1390 545
1240 1455 765
1071 1263 464
1059 1400 998
975 1161 1022
609 1224 358
894 900 495
570 1319 106
793 1424 1474
904 1071 746
34 225 1486
511 1330 423
1305 1346 728
1016 1196 140
168 674 682
424 524 1335
193 451 633
829 968 62
1483 1497 1291
243 911 470
1449 1486 560
276 1465 751
495 992 396
339 825 1154
701 1286 1367
1210 1338 1059
718 1080 1248
619 710 1301
1137 1146 481
1115 1459 569
1229 1263 1276
727 1310 336
1481 1500 263
776 847 937
1428 1489 761
466 1368 1299
826 1466 505
1223 1364 177
25 802 483
1048 1356 1051
566 1012 554
687 757 806
1463 1488 440
1121 1158 1316
692 1371 806
391 483 371
473 904 253
1445 1447 203
80 1228 852
947 1385 646
653 966 664
897 1309 1463
359 1128 406
1453 1464 153
1278 1449 888
743 1266 1389
401 1426 595
1002 1313 272
1163 1457 908
256 303 277
668 1359 1490
1136 1192 195
381 1115 273
89 791 1456
1065 1113 1349
622 643 324
327 898 949
1394 1459 1146
157 496 922
782 1397 1085
1144 1448 1017
951 1492 350
213 268 1360
1445 1458 1266
414 595 631
1330 1396 157
1346 1455 1333
1410 1436 580
613 1024 698
671 1351 1225
610 1077 1119
311 314 490
455 584 1381
827 1220 46
589 1252 936
926 1320 1008
869 1132 569
439 1430 1053
991 1328 285
463 1125 818
371 994 16
1002 1126 268
1457 1481 763
986 1422 933
220 1104 946
1461 1470 595
561 967 495
201 1138 1244
1213 1494 276
1175 1197 1465
1147 1171 1284
1489 1490 56
1 285 808
84 240 261
955 1418 759
508 873 1432
128 1422 168
534 701 244
388 1012 1370
637 1206 781
366 1005 377
63 1398 1279
633 1459 1365
530 1496 1233
130 293 640
1297 1442 335
1397 1467 45
1139 1275 766
223 1412 299
1413 1415 773
563 1371 115
357 1313 456
1378 1446 537
114 394 258
1325 1493 1363
1333 1459 1359
502 800 612
776 1225 1371
62 1453 483
120 1185 1001
331 894 1077
316 487 1240
654 980 1121
105 134 1335
1062 1346 1179
608 1471 1138
655 953 255
1416 1491 1376
76 1048 89
1491 1493 851
1291 1336 446
1234 1341 951
1098 1182 793
742 1441 416
1129 1229 200
456 885 248
533 1012 972
300 784 5
279 1275 920
1159 1478 1278
1270 1394 1239
399 655 1094
205 343 335
880 1165 534
1387 1447 395
1159 1256 117
1382 1497 476
1090 1237 313
6 1011 1126
865 916 1066
1340 1341 1230
942 1300 509
525 1372 119
493 696 254
1481 1495 169
237 1085 135
1086 1469 939
319 424 138
1129 1203 1495
1085 1152 16
497 1250 213
617 892 1448
983 1312 830
180 873 296
72 436 303
209 337 901
484 1259 1230
1077 1164 23
792 1031 895
844 1026 901
388 514 72
112 1304 837
463 989 349
701 1485 1094
144 608 1341
19 435 85
142 541 647
549 755 576
1324 1424 392
121 228 1283
1361 1413 783
1397 1473 610
1220 1301 1217
1181 1273 388
834 1185 1420
645 1300 41
114 473 705
1398 1421 1291
344 870 30
573 1463 1045
913 1243 56
1220 1350 607
1163 1461 923
575 1141 315
814 1247 508
956 1271 485
159 1133 1202
897 1495 1173
761 977 1076
901 1175 1435
29 141 375
1187 1262 357
676 856 373
1182 1301 907
917 1404 549
230 422 262
502 811 164
750 1017 1345
1104 1173 466
412 1458 956
1111 1282 146
563 878 197
592 975 492
845 1143 1059
1381 1468 341
1325 1444 1390
1071 1314 394
149 1308 1220
736 1156 414
1276 1402 398
1497 1500 103
1227 1366 964
1450 1478 884
735 999 467
711 901 474
341 653 977
1121 1257 7
929 1336 1475
1045 1192 1100
452 1128 54
759 1316 1500
720 1482 280
1211 1304 697
347 538 1105
696 948 26
1250 1305 1088
959 1312 313
1423 1496 539
1312 1321 262
814 1126 1109
1410 1472 1084
1217 1420 466
823 1059 788
947 1139 454
1226 1400 593
969 1134 443
126 1133 577
278 1069 347
80 1213 900
50 1061 621
1336 1419 1032
1064 1284 1005
1430 1463 532
791 856 143
846 1446 941
1367 1486 545
1032 1224 749
1136 1393 849
333 617 9
105 1042 1072
646 1412 676
768 853 305
360 1097 726
266 577 621
442 622 1067
956 1388 1499
217 1441 822
154 1447 380
273 366 1439
281 1150 1288
1175 1187 985
1057 1412 971
1199 1355 690
451 1174 1443
415 593 411
354 1085 658
960 1258 36
538 560 1204
1395 1467 1239
213 672 1308
914 1341 177
599 891 1022
318 1374 1321
1154 1309 1045
1149 1338 1197
897 1029 1225
219 1351 813
628 1078 926
596 1273 725
302 916 1112
83 1405 1271
924 1197 1264
1400 1469 94
117 1216 752
1374 1411 931
846 928 99
362 1411 746
779 905 271
1210 1301 876
1189 1200 584
797 1341 552
949 1179 718
512 879 27
1130 1372 1292
746 1430 328
160 1081 614
929 1390 81
1136 1195 979
416 537 1226
414 873 1137
501 643 98
1262 1375 197
931 1299 755
253 1329 463
241 1147 1246
713 1487 477
566 947 39
1274 1490 97
479 633 56
297 1152 1443
1478 1480 821
253 1223 38
1248 1484 43
279 747 923
24 274 1479
956 977 957
1478 1481 412
967 1458 963
440 838 1013
961 1339 1393
927 1025 1225
805 1422 293
792 1190 119
999 1246 948
1249 1306 1090
895 1478 1277
1174 1482 532
483 1170 948
584 1453 969
1210 1422 573
1442 1488 449
901 1336 410
1226 1232 314
819 1203 269
565 1452 142
433 1273 172
475 1162 389
680 1038 197
226 386 201
1484 1491 304
161 721 141
1032 1132 1207
782 1095 585
442 730 554
985 1092 87
1149 1248 750
586 1407 1261
181 728 758
873 1143 238
1362 1468 776
768 1104 922
137 343 909
879 946 938
512 636 391
89 1339 785
473 1219 345
670 1264 998
1444 1474 1134
480 1167 757
63 1281 495
246 399 918
1000 1404 752
612 1131 710
968 1276 425
829 1014 1037
772 1110 1404
1114 1394 1367
212 1213 382
1274 1325 69
182 984 164
311 947 844
852 1275 177
690 761 944
507 1168 1019
257 940 1283
1038 1281 658
1217 1371 1444
423 1392 1445
1346 1455 808
1499 1500 1194
2 600 475
1097 1118 1371
151 827 692
1269 1330 473
1340 1402 1471
474 1019 921
810 1273 163
1142 1337 507
801 1463 758
748 868 338
1227 1293 797
1045 1234 1033
904 1217 230
162 1241 761
1392 1485 1067
284 438 483
375 1436 360
753 1499 810
802 1086 111
913 1044 850
703 759 284
202 520 341
1092 1136 1142
714 1440 574
437 446 1160
1341 1351 535
1046 1327 568
249 1463 1289
99 590 944
1148 1355 470
211 1333 312
1040 1222 1159
582 637 1461
332 1118 651
428 994 296
947 1188 650
1427 1441 143
650 1134 165
4 788 218
431 801 532
179 750 771
131 1116 450
1281 1441 784
244 1168 373
79 1499 139
1302 1308 633
473 1221 255
1406 1416 731
252 1082 361
1456 1458 287
712 1427 1133
577 793 1261
1077 1335 1029
235 567 399
1161 1472 592
43 209 470
287 1302 260
1216 1348 1040
706 759 1340
886 1494 756
1297 1498 1113
851 1462 1454
10 1325 195
43 620 919
146 1039 43
1187 1295 1479
233 991 261
439 1015 705
1112 1394 341
264 1006 1416
1279 1379 1260
1231 1447 35
1377 1456 1110
58 1152 122
872 1018 295
754 1263 38
434 876 316
1369 1399 1366
631 1446 1280
1057 1061 917
502 1183 1458
123 582 695
337 811 881
918 1384 951
695 1268 993
1468 1473 1357
483 1121 1199
376 1085 936
296 717 366
770 1381 778
633 713 575
1320 1379 575
1004 1040 96
1084 1171 1012
947 1328 253
447 1487 852
401 695 531
1190 1424 568
81 1482 59
1168 1233 147
717 978 329
1195 1259 449
1141 1177 798
1247 1433 51
493 1287 1263
457 1216 421
1013 1116 759
1411 1413 1343
185 754 1380
1268 1310 913
157 231 1428
531 598 765
58 897 278
1280 1333 725
1015 1155 873
400 644 519
894 1326 519
509 602 923
1475 1478 1203
1424 1460 1295
890 1430 1373
1124 1402 456
717 1050 175
786 892 1269
1226 1265 740
1082 1420 536
141 283 696
57 1456 283
479 1471 862
480 1406 1251
405 714 851
1033 1392 1136
1430 1471 1043
1008 1155 337
957 1227 580
269 1191 1301
547 768 1112
826 1225 569
1265 1455 214
884 932 955
497 1074 467
1102 1260 1348
864 1058 825
541 993 904
337 938 1337
449 1310 324
178 294 239
1260 1460 900
378 593 1230
247 826 1157
263 782 450
212 751 416
642 823 180
1441 1499 463
134 1059 845
567 1388 674
1219 1268 608
156 1074 166
338 804 123
387 424 589
297 467 648
726 1005 724
1312 1332 1498
987 1163 725
1194 1484 22
121 1041 1171
210 295 453
807 1040 1411
842 1150 451
343 521 291
374 1152 162
975 1167 146
480 778 1263
286 354 245
457 830 1286
911 1114 406
1128 1257 620
736 1396 703
1452 1498 1458
1248 1251 366
1419 1469 943
1473 1492 784
250 428 460
1143 1319 958
586 1338 928
1034 1307 1400
807 1291 756
487 937 569
219 1305 28
812 975 665
500 536 615
602 1382 640
1211 1480 139
1191 1476 441
1359 1494 933
506 799 389
823 851 105
75 815 1325
1291 1359 824
1069 1239 1271
969 1352 1309
481 1431 124
179 657 833
642 1136 307
1427 1492 1308
1314 1498 793
556 898 1064
57 1103 505
1167 1325 206
859 1412 574
124 195 1413
92 225 589
158 159 511
78 225 1122
171 699 1318
356 1482 1394
134 1257 604
344 847 1395
133 1189 981
461 857 1353
751 887 408
92 478 1079
301 883 1144
505 1117 644
1391 1429 1014
887 901 1460
1314 1351 311
1361 1482 1080
570 878 534
78 919 123
539 1258 540
1149 1416 548
1171 1184 592
724 1251 81
1170 1292 989
70 111 972
1125 1361 965
439 1125 1278
173 542 1241
262 539 939
572 1053 825
573 787 1186
855 1254 783
1237 1463 1461
112 803 763
1486 1487 771
425 947 80
614 1070 297
141 798 384
1433 1468 1429
1437 1463 797
1401 1452 380
473 1141 1455
4 1018 1080
1450 1466 1060
362 950 251
1347 1358 1392
268 1480 931
1085 1473 316
143 874 1384
53 319 636
20 73 1246
21 681 712
633 1347 350
848 1499 1168
814 1133 508
761 1445 739
765 772 1238
64 1115 1262
358 1191 665
1480 1494 418
841 1269 1104
56 1012 958
830 843 1384
734 1294 223
462 725 615
1482 1485 1165
1360 1442 1291
154 957 1151
184 736 645
124 1384 259
239 736 64
482 1090 1247
486 600 650
1185 1233 354
732 861 774
1007 1083 1149
1430 1452 327
1447 1497 1367
331 877 350
465 790 323
1499 1500 619
116 1282 1373
519 944 432
761 995 408
1191 1304 815
1176 1179 583
349 682 147
1412 1443 19
1499 1500 888
608 1293 39
1435 1440 1461
834 1263 35
995 1333 1111
989 1108 1033
1096 1356 674
1416 1455 1279
1359 1408 414
934 1317 868
1107 1334 275
770 1160 887
846 1129 822
184 805 210
761 1470 17
1361 1465 1214
528 1072 579
1209 1298 1089
858 898 1491
839 982 1313
809 1447 1189
223 792 1281
428 931 687
271 417 234
1350 1398 1253
67 901 223
109 1043 1401
670 1208 794
1291 1398 1084
537 1391 552
362 806 752
191 740 388
446 856 121
1409 1454 425
811 869 537
463 1335 729
862 1086 413
1181 1489 778
208 1154 930
11 67 396
923 1126 753
642 828 88
1398 1496 1466
874 943 1221
336 1012 297
380 1304 990
163 243 272
663 1147 278
715 1331 1263
35 1429 684
33 704 1468
24 96 1144
375 564 1203
163 791 703
718 1030 951
242 1234 130
825 1349 992
566 1283 337
178 776 547
913 1270 349
1375 1418 514
310 784 174
1015 1065 463
89 1049 1209
591 651 523
11 471 876
327 1279 613
233 630 308
1275 1372 543
1117 1195 722
1408 1439 923
1348 1404 869
37 482 1140
1395 1461 814
1248 1376 575
313 411 1025
834 1253 233
562 1039 1243
260 1321 1044
931 1436 134
370 405 1019
243 1254 470
249 318 600
114 679 736
480 1323 498
257 1270 745
367 1167 307
279 1245 1267
676 839 951
1056 1079 495
425 715 323
1285 1385 552
916 1486 865
1086 1395 203
1138 1141 573
349 1467 642
200 553 1442
488 1287 121
130 456 99
1147 1429 240
1488 1493 488
334 675 1428
560 801 808
225 821 1289
372 662 840
895 1136 1034
119 1240 389
1093 1412 210
37 937 945
62 1493 1037
721 1161 1353
332 1464 1167
781 1069 105
1495 1499 1331
780 1023 829
1394 1462 1253
833 1381 1043
245 1320 619
538 1367 1088
454 1246 183
330 1326 584
796 1417 1366
767 1122 564
1161 1355 1144
907 1356 538
825 931 1256
1018 1370 1413
623 954 583
1333 1394 1400
344 619 1113
1457 1482 417
1337 1498 395
954 1364 775
534 763 1385
1329 1410 996
1124 1350 1133
122 641 1234
873 874 158
414 1324 162
701 942 1415
1338 1482 874
618 651 315
600 714 839
64 257 1040
1338 1375 1232
647 1455 1022
382 742 104
1450 1473 613
410 914 107
1328 1338 1238
490 1423 831
853 1383 1186
321 1121 916
1027 1075 653
176 422 186
347 887 1277
657 1409 400
242 639 1364
1439 1490 1155
1481 1499 1053
1220 1241 152
55 703 801
1164 1275 1132
819 1123 1203
1253 1341 1004
509 743 914
691 1279 1039
961 1144 1334
737 874 661
920 1217 623
100 721 1176
542 931 1465
570 870 151
1360 1456 674
1014 1291 448
1259 1448 986
231 1314 664
529 554 1478
1183 1394 600
1059 1305 494
1421 1473 899
814 1103 965
997 1422 194
349 1240 1415
979 1494 1480
901 1092 1484
1068 1223 850
787 1457 1037
219 624 1100
951 1485 150
668 699 862
1101 1230 453
1453 1466 1330
902 1086 168
1027 1133 540
910 1120 301
318 648 1299
1325 1411 687
812 1242 515
1199 1234 1142
1235 1379 85
867 1220 728
18 1244 794
329 516 19
1498 1500 910
933 1053 408
1309 1460 573
160 1067 1127
1046 1448 339
980 1044 1370
119 697 257
403 1301 1103
456 554 689
372 428 1288
784 1255 1247
883 1337 1182
389 673 787
1114 1489 1106
510 1293 702
48 569 112
611 1124 531
1365 1459 1481
347 797 455
845 969 69
440 526 438
910 965 23
416 1449 553
737 1496 1326
406 1038 118
133 1345 1297
700 1186 1125
1301 1448 55
281 720 871
1175 1199 257
678 1496 753
827 1164 1206
460 1085 160
817 1085 1287
1357 1498 1178
1271 1354 119
660 880 305
683 1103 708
657 1023 683
1167 1242 221
1095 1141 1043
1196 1223 251
1089 1092 228
589 1193 750
287 700 696
1141 1399 9
584 1091 905
1269 1352 1406
1476 1479 539
681 904 64
427 1125 57
29 193 1415
510 613 1140
364 1196 119
1291 1361 1170
1154 1445 1051
1198 1399 414
1340 1346 391
276 1456 1233
1085 1364 1120
664 968 1002
584 1223 943
654 772 210
406 582 1385
505 664 1042
15 1077 402
747 925 524
1470 1484 441
1366 1496 398
600 1375 365
420 1435 309
1215 1314 402
546 729 257
999 1084 51
100 184 745
60 1360 217
1493 1495 356
216 711 643
260 1125 174
261 819 639
215 1000 645
499 696 345
511 718 74
1349 1416 1399
700 1357 98
458 1194 140
1168 1366 1493
805 1432 438
918 1495 408
1459 1489 1396
1446 1475 1463
182 887 972
299 610 1155
6 772 1085
369 1191 807
1065 1371 311
625 1163 1376
686 1077 532
340 1098 1431
1040 1422 1060
906 1078 926
354 929 1460
311 932 538
1196 1376 737
701 1222 20
1383 1471 1451
264 1161 160
1178 1288 481
703 1403 1132
608 620 188
321 1061 300
557 705 669
690 858 909
487 780 1138
237 928 566
403 719 1002
1028 1158 98
767 939 1244
1290 1473 933
1321 1463 1339
1473 1494 294
1049 1121 1023
967 994 679
151 677 283
460 1259 130
1372 1492 49
630 926 1197
155 609 448
1324 1426 502
767 1003 665
481 1438 1472
2 900 854
846 1070 848
289 591 1074
1060 1247 1052
205 723 133
159 704 21
1097 1116 909
1418 1471 1038
1484 1487 1086
217 758 1320
24 410 61
816 1020 873
711 1020 95
901 1001 266
1255 1257 1104
46 108 1184
1222 1234 104
833 1396 1176
96 912 1364
790 997 395
533 549 1206
1274 1361 1284
1450 1486 1165
316 591 507
887 1244 111
678 908 484
437 537 926
1264 1461 903
1179 1214 961
983 1284 332
330 590 736
274 1081 903
571 1387 296
314 1333 793
575 1187 1241
968 1200 460
1357 1409 248
1487 1496 889
109 528 121
811 1401 384
430 1436 277
989 1296 1054
1080 1128 703
1450 1470 311
1051 1225 45
600 974 630
280 422 929
537 569 325
11 898 352
180 724 69
395 403 935
306 860 1077
351 1322 193
774 1088 137
668 1089 1448
871 878 1490
580 606 56
1058 1365 91
761 1013 353
1471 1499 1360
740 1194 664
536 1290 121
1225 1438 1294
109 941 1105
1334 1474 303
645 1246 22
185 643 1221
383 536 1176
1336 1390 594
524 590 1014
1084 1330 492
442 556 369
166 1365 1392
779 1252 261
1418 1429 86
471 573 406
887 1044 404
886 1288 952
1377 1450 1375
519 1467 235
1400 1487 412
1001 1406 629
641 769 355
307 407 583
474 740 638
900 1174 678
317 1154 1101
1331 1477 499
11 617 827
831 1377 700
1349 1386 1353
568 1466 199
1184 1469 550
304 670 1038
1331 1358 692
659 1492 1133
1481 1487 417
423 1444 1073
563 1199 491
1022 1400 3
1110 1147 160
939 1415 439
831 981 465
910 1483 470
860 1134 1320
872 1184 93
190 1401 225
1400 1412 862
1103 1197 1379
1467 1479 814
1090 1137 971
1464 1498 133
1450 1465 265
35 209 1209
1032 1132 696
170 436 358
185 245 1180
534 1215 720
128 381 1295
735 989 548
754 1438 581
480 791 97
1132 1468 19
907 1191 1022
688 1210 61
717 925 953
373 649 129
1167 1303 495
447 941 1085
658 1070 1138
1169 1187 1128
217 234 681
1045 1382 80
1364 1449 1026
173 560 375
1229 1238 937
1401 1426 1274
40 1469 1478
897 1328 187
529 839 628
946 1205 961
1120 1162 72
722 1359 3
199 720 462
164 787 1057
1376 1449 1164
18 66 38
526 782 1257
1156 1329 281
185 651 765
652 1036 30
178 512 365
195 1030 10
908 933 1469
252 1109 372
841 1330 378
970 1229 860
1349 1468 1223
1019 1347 391
1401 1465 451
707 1390 795
467 593 278
951 1062 911
1200 1333 64
790 1075 1228
1215 1290 1085
1147 1216 1123
1066 1162 632
678 1433 711
140 1393 1481
888 1359 214
108 1217 1411
1081 1331 1076
590 1438 626
1220 1474 1094
483 1289 437
1360 1490 972
1450 1464 1451
809 1087 693
67 1478 141
877 977 1448
1071 1200 1419
262 753 859
1396 1415 1159
1260 1471 1321
790 1309 812
418 513 1268
1406 1486 129
580 1137 885
604 1425 470
1242 1268 465
30 257 868
707 1465 653
612 1068 516
609 776 1015
1276 1298 1051
121 1096 350
1224 1342 365
1471 1488 1275
1135 1192 1086
727 849 1332
1056 1430 447
143 590 453
501 589 954
962 1495 809
600 632 644
1189 1258 938
214 342 1492
1272 1292 1
478 723 977
431 1418 1219
925 1250 187
1388 1398 460
1283 1437 844
1202 1419 351
796 972 715
1449 1468 427
