9500 9800
1323 9204 9417 8190 9164 1091 307 2788 6259 1869 3545 7881 6077 7860 7631 9411 5478 7234 3251 6169 6256 7877 404 4524 8271 1173 6126 837 6965 4858 5192 3587 1971 4970 2595 9245 4675 4326 6477 4753 339 61 681 3175 3224 3110 9221 5396 4087 2271 2174 2007 8256 8474 2701 6903 4277 1684 6760 8656 3290 7942 2717 3636 8374 1044 1432 2587 929 1534 7058 9404 2871 5809 6958 3683 5389 3403 145 2912 8915 6359 1228 430 4516 8992 1180 332 8092 6004 8968 6470 5124 3221 1058 7369 4086 6864 4158 3993 4365 6401 928 6448 1335 4772 2677 9291 508 6431 1074 2979 2593 4070 3300 4973 588 7790 5750 113 2952 5825 1202 1582 5271 8274 8646 1139 42 9025 6719 3239 943 2418 6333 2043 972 8553 5216 3852 9037 1747 1981 2139 357 3697 7630 1986 6814 6202 309 3555 5018 4615 3738 8021 5048 2474 1831 5794 1217 2954 506 4194 8245 3286 3186 4440 761 8534 8343 3885 6570 7333 9492 7118 6610 2346 3469 8158 5379 7057 6883 1000 7323 1901 2899 6764 8476 3414 178 2325 2154 8613 1192 6639 2287 8548 1061 1488 3737 1038 8427 8641 5763 2285 952 2606 4922 5949 6314 7170 8195 4745 2421 463 5839 257 682 7521 5002 8596 7703 1587 6096 6914 2349 4368 4022 342 8482 5492 6301 1341 9332 4826 4674 1003 7086 4533 1262 720 3943 4701 7400 2076 8456 3895 1154 655 4439 3985 2299 1544 1016 4695 7960 915 1098 7242 5397 48 8593 6331 2675 4681 2497 5428 6653 196 4783 1958 4839 3101 5899 794 6081 4165 2932 1110 3431 241 6800 5587 1814 8300 8990 3422 2496 7308 1568 3039 5806 6280 474 5512 7150 2383 5616 1844 7235 3332 5373 6732 4066 2569 7281 7238 5146 2832 4146 4251 5800 8604 3739 8372 5287 8723 2757 5574 1053 4728 7004 2658 4622 2077 6949 8966 4161 5586 3782 1496 5787 7990 7102 6400 8970 545 5378 4250 5593 656 7482 5375 2580 1114 1710 6644 6497 647 5764 6975 6326 2330 5175 7641 2191 1612 6187 5074 2256 7403 5157 3162 1640 1578 2067 4063 315 755 3746 3877 1314 6986 9275 8841 1731 8628 1819 5980 1600 2567 2464 1428 11 2194 6668 1234 5032 7689 3908 6322 990 8774 3306 2842 6455 876 2018 4183 217 1254 1068 7326 6362 3437 7572 8985 5348 9346 4073 1118 1979 7097 989 2617 7092 6332 5820 8893 8672 7978 6210 632 5551 1773 34 8400 608 3828 7110 7741 5598 6414 8976 6611 5097 7456 4582 4320 1883 7290 5657 2083 3678 5532 5983 683 6046 7951 547 745 5664 1116 577 1596 4946 3914 1926 7211 6625 4322 3575 6065 1855 7388 1614 5425 1357 2168 7897 7619 6008 6393 9312 7157 6513 8248 5802 2843 8942 7799 8917 1186 888 2283 1868 6743 5738 3365 1632 5243 6163 6012 1162 5320 2140 8196 6664 4125 2228 7659 5884 5147 4303 2444 3246 4770 4474 7795 3084 1744 5268 3385 5219 4181 5943 2674 4091 1020 7071 2962 7488 5485 4225 5260 4124 4162 4262 2976 4587 3441 7843 3409 9141 322 3745 4062 495 6679 1781 6244 7700 1490 1104 991 5452 9005 7319 3915 3477 5970 4894 5742 312 6572 9107 2127 4380 2415 1719 825 6617 850 4755 7573 2667 636 4395 8186 6929 1479 5214 882 5961 4164 2680 8965 5847 3123 5181 4650 9299 4138 6240 7701 3807 50 7338 7549 260 7355 604 6831 3220 6283 3374 1887 3539 4172 607 7589 7785 2557 6742 180 8110 1980 9319 9200 9103 817 2882 5561 1127 53 6590 5622 1279 5450 3261 9301 130 5103 8109 5654 3191 3940 6067 9126 1743 580 3855 5954 8416 2363 5871 7375 176 1580 507 5674 8198 8866 3717 2371 6075 7982 5620 3794 4051 7274 7576 7041 9147 3590 9013 7904 4169 7912 6349 390 515 6100 1756 1874 4487 5575 1155 9166 6780 8029 6652 4463 4237 6354 3435 2775 2537 7655 5535 4972 7229 8214 3244 3171 4143 8453 3078 5859 2046 1645 3475 457 5645 8861 1521 8323 6666 815 4127 2104 564 5156 731 879 6358 9366 8661 659 8857 9399 8720 1838 6321 216 7634 7012 7609 3289 3098 6884 2635 3090 2024 2995 1175 5640 209 2625 968 786 15 4305 2482 2981 6526 5127 5472 6092 9476 2422 1867 9254 6112 5773 3305 8496 3868 6104 3989 4017 5203 8318 414 5528 3499 6655 4132 5523 7564 4600 3897 3790 330 6157 4200 7895 1185 4442 8303 6674 6649 3243 1959 8655 3298 4840 3879 7823 9459 7545 1635 9228 3014 7649 3260 3235 1669 8996 4003 5539 5248 8572 6379 8844 8794 819 8350 3375 1042 7021 4268 3708 618 4734 125 3006 4005 736 594 6650 2833 3742 438 1702 5965 5745 5370 1080 3883 863 519 1718 1759 634 4258 2849 697 1812 6600 4719 5328 4550 8789 3622 4509 5894 9167 227 6406 6417 8091 5834 528 6088 5111 1227 7798 6082 6933 5484 5766 7207 4023 6936 7929 3771 1954 5944 4038 1742 2310 8975 4752 1434 3416 6777 2161 6118 7997 8960 9454 673 8095 4090 6626 6955 4288 6399 4914 3287 842 3604 5531 2402 7436 105 6467 2972 8527 3488 7505 5185 3811 5023 2873 3453 4996 2763 8292 3557 9448 2093 8803 5828 4089 4729 2571 7727 7051 4195 4454 8617 9041 6940 2699 4261 5829 212 5415 7390 3668 2261 7107 4885 3147 1407 41 7962 2933 2344 2762 5493 4780 1751 4149 5530 2835 8260 306 4001 7503 498 2985 6635 2149 7052 521 2958 570 7742 8639 1464 5669 5215 8675 4394 9239 4829 73 6728 569 4297 2846 6518 3456 2210 4882 2096 182 9083 5578 9426 8081 9471 5277 3397 3451 1987 3898 8401 9427 6438 5467 680 264 7452 4006 8 6891 5743 4012 437 6651 5340 6023 2425 4021 6005 932 645 3009 8409 4943 251 3595 4013 4234 6911 5166 6928 6637 1440 8412 542 9395 7328 7301 8471 9124 2197 4314 2060 80 6311 7062 6557 4512 3398 5144 5099 8285 2401 2750 4869 9443 6108 4663 1938 4167 3913 2070 2574 1928 7969 6845 1215 8528 7896 8022 4422 2343 7376 5690 726 3597 3117 7607 1842 8510 3971 6960 7882 3180 2413 2212 9148 734 8959 5746 7763 7160 2823 533 2646 5302 1748 8435 3366 8829 5934 910 451 894 840 1156 5210 5078 6552 5451 3899 7429 2268 895 8809 499 3963 3495 2563 8786 6461 7764 983 5915 504 5193 7094 8648 8394 6925 3130 1064 4345 1416 8478 8025 3677 117 6125 8027 6695 8385 4386 436 2370 5677 6087 8275 7686 6612 7455 5324 5025 8699 5197 449 2607 5350 7225 2389 4685 1146 6784 8253 9273 4984 5924 7903 1049 7457 3196 8574 4730 1595 1134 3316 9238 5543 6341 4880 987 5569 2354 1421 1096 8602 8590 8376 4024 157 43 1796 4870 1677 6926 3592 981 7037 2814 641 2460 3408 4157 2439 2568 5261 7298 2431 8414 1251 4329 6130 9277 6427 8627 7279 3312 4992 186 5399 1204 7654 2639 8166 7906 9345 456 2596 4538 4668 8719 1605 7129 5416 6876 4659 6385 4423 980 4632 3837 8147 7979 940 7625 7913 4282 5360 4584 1685 5091 8261 1131 1754 4173 6119 2218 5612 5327 9422 6304 8891 6483 6374 3182 8218 5068 8874 3074 1045 7613 4883 4290 8325 3864 5232 3630 8936 8760 8770 6102 7410 3285 605 3740 1900 771 4571 7692 8018 2121 7519 6945 7336 9176 1468 8468 7690 8876 2621 5189 6540 8507 203 8342 744 1372 3370 9092 1972 3308 4949 6790 7806 6289 6842 441 6140 4425 8042 5928 1545 7985 3957 4226 1862 4691 1174 5576 3228 1566 3487 1230 7876 148 3033 8469 1813 6585 1519 8289 3503 1542 9075 7551 4252 2305 6792 558 4601 7360 3278 4147 471 9337 3248 8406 3337 2255 4593 5758 4449 7486 4008 8848 826 5842 8573 2365 5689 1427 3226 6924 8057 911 1159 6632 2458 1638 8625 5254 6638 8191 5108 8606 1487 8090 2631 2263 2993 4950 7731 7173 3734 5873 5865 409 8105 2777 331 6577 5039 6224 1067 2206 5962 4967 2345 4595 510 6353 4865 2437 371 6502 9357 3102 3997 17 3170 4847 405 6863 2395 1256 2412 5919 6492 3056 3075 7910 1366 4556 5336 925 589 2192 5446 2511 3299 5251 5819 425 3138 2252 7632 3930 8257 914 7283 7796 6214 6266 9381 7083 2824 8159 3690 124 4680 1183 6677 8958 2021 9222 7784 1591 5994 1401 229 8833 3829 6373 6337 9360 920 3087 8422 1626 5972 5786 280 2940 7909 4429 9241 785 2710 2010 8262 5566 6478 3568 6523 971 7830 6156 4698 7418 1452 1668 3346 8281 9050 4682 7608 591 5266 6255 4809 9108 568 6832 6422 2838 7517 9317 8644 1673 2736 5648 8221 5267 4866 4483 412 2964 1165 6360 3735 3863 8373 6778 4621 6854 8439 1078 9233 2211 6533 8913 7563 7661 1361 5055 1523 5289 2169 2737 9213 4799 3131 6269 522 8498 1025 2333 1815 6658 2465 7738 8554 8660 3236 5190 8463 5567 2618 2741 884 9090 5526 9117 6222 7387 4482 7627 2518 6499 4983 5918 2510 5066 149 5444 6454 6756 3104 7385 8209 2336 2925 60 6741 4098 6948 283 4333 4565 5661 3491 5896 9004 4448 3965 965 6496 5442 8859 3371 2086 427 2886 2257 3853 1072 4239 3640 2579 5459 6270 7704 3077 4618 7626 2697 9294 6656 2516 1560 4330 8612 8465 1726 9175 7650 6458 368 7901 7407 4353 4472 3706 403 491 8269 8788 1648 6861 7597 6697 8283 4766 1136 1919 3840 3176 5211 8674 523 6687 4548 5844 7371 27 6571 8939 4976 8987 9248 3991 9047 8263 6433 2761 3527 1097 2548 2420 2177 4547 1196 4670 804 5300 6840 5781 868 6272 8194 151 433 8362 1730 2118 8163 7296 4636 7493 1903 7831 3994 6145 1205 224 5008 9413 7994 6881 9155 360 2943 1220 539 724 3120 5557 7477 871 670 8632 6880 4712 4574 8687 8905 1746 4861 8805 40 5545 6938 4923 710 5538 6514 8017 1048 7534 4767 4901 7384 387 7402 5204 1714 8251 25 1917 8459 1665 9400 4248 5178 8227 6532 9205 6704 1512 7684 743 6395 963 7220 8216 6014 8737 8242 174 4747 8536 1795 7729 690 1636 1339 2561 20 8060 7645 766 7178 669 3295 4278 3518 4319 7839 1834 4929 8888 7101 7945 8381 8634 6546 8161 1977 9252 3783 4294 77 356 6253 1564 640 609 6616 2691 3751 7322 3225 9018 3296 8564 5160 9423 1348 5506 470 5229 8768 5560 386 337 1843 1915 4355 7140 2822 2308 123 3667 1896 8305 1232 3008 1473 8696 5139 5963 8550 2956 7268 5783 7302 4808 7134 5246 1886 90 764 2306 1664 2035 3442 898 1057 8407 2141 537 9080 7047 3274 2436 6386 9174 162 6902 8881 5343 2551 6020 6548 2260 9163 7009 4725 4838 6850 2115 2473 6022 5858 5411 7465 5067 1847 4122 7803 5503 1670 5173 1425 8911 873 6090 1471 6787 1308 1686 1516 139 9000 1460 5236 78 4340 4382 5599 3137 6852 7343 5821 2538 517 5710 1546 5685 688 573 2959 5187 7476 5536 5149 7693 2919 3193 3616 1107 5349 133 8667 7675 2323 6703 5960 9160 4342 8623 5849 4525 9220 7049 7340 6627 8677 256 1630 140 6508 8864 8562 8850 2291 3702 8781 7786 6489 1346 6969 5004 7953 6356 5573 4968 1411 9451 1235 2583 1274 3653 5445 2922 1579 1703 6051 5941 7769 6623 6475 3003 1013 3990 3729 6731 2804 1966 3581 6844 6525 2723 6302 5164 9242 6089 76 3841 7010 6312 544 132 1333 7397 2013 6177 8773 8420 3256 2908 7034 4905 6970 6007 6739 7251 2936 6071 777 2487 426 4317 2229 6701 7783 2238 4907 4884 5702 666 3114 7624 6413 16 4246 9062 1676 1374 3665 7571 4511 812 6028 9170 321 6000 3201 6898 886 7677 4141 8822 4633 3154 6528 3723 3177 5346 512 7998 8588 6038 5131 4477 2904 1267 1786 1692 1623 170 3691 1607 4634 9029 1671 2881 585 1823 7544 6074 7054 2492 5945 718 2797 3610 8599 4868 2808 1830 358 1657 5890 5549 8106 1282 8144 4015 5043 3231 1909 4409 5240 2765 2598 1371 4408 1069 9006 4202 4174 1854 3465 1011 3089 9201 5096 6460 7809 1324 8679 9339 2514 2602 7907 2069 277 7970 4616 6440 860 8692 2390 1794 5063 3052 8377 3028 2732 2851 8335 5220 8192 2660 1397 1663 4716 2175 4154 596 3454 6436 9093 353 663 3222 1660 8150 5112 4075 8538 1420 4862 6001 5701 112 2531 7657 6956 8001 9285 8007 1377 6274 5119 8953 7430 4623 7188 2486 5080 8713 6348 4064 6791 163 6261 4637 4764 8310 383 1492 3981 9369 8947 858 4418 5386 7891 9015 8716 9478 7967 6231 3124 2784 4871 1307 5939 8649 9343 2615 2394 2105 5391 8130 2249 6194 7592 561 7044 7353 1791 5956 3688 6543 759 9465 7874 2969 3401 552 103 5208 1084 1252 8360 6740 3172 9445 9383 2582 5722 6042 455 9219 8787 8709 9270 7341 7557 8449 9460 9450 9079 5013 9419 4497 559 4963 7787 4179 1597 520 5110 4000 2704 5282 8093 6735 4260 6047 8710 2448 8765 5759 4649 2869 6011 1018 2033 5071 9440 5437 1402 5483 4198 2616 526 7988 4688 7963 5987 8880 5790 7678 5552 114 8237 1603 379 2142 8279 1584 611 4150 6149 8378 7666 7149 5872 4057 2810 651 8600 5803 2678 4144 2517 8425 8451 5381 440 8222 1219 1532 5564 3467 4611 4617 7267 8278 1172 7272 5357 793 1547 8051 5683 1261 8997 3546 4100 6267 8846 2427 2558 8762 5808 4627 8605 4097 276 1063 1200 2987 1085 8086 4508 4877 6711 385 3148 2526 8268 7779 5610 5589 6338 7026 2689 2751 3 6501 5716 5660 7586 4043 6636 518 5033 2996 4484 5897 9457 8978 3127 6564 6293 8597 3434 4832 6428 2369 698 3439 3685 9467 2535 1328 2827 7556 7243 8014 9208 2536 8539 4410 9179 550 8087 4076 8313 1071 4304 4954 9384 5307 6465 8839 2320 2917 3614 6820 4104 7528 3523 4661 1151 3106 7508 8122 1482 7217 3820 9094 6946 2288 3686 9017 8484 1211 2633 505 2317 7829 8039 5782 4702 4643 396 8963 3187 625 7834 6721 5344 5713 8522 3042 272 7098 2350 4642 1608 2688 1447 2301 9349 4458 3159 7070 1152 7552 1839 1426 1484 7590 714 8178 8308 4426 707 1293 2866 7561 5044 8290 2844 8524 2298 2793 4456 6983 908 1330 3347 3402 384 8167 3769 9274 4703 5818 5062 6589 6875 2767 5237 4722 2430 9257 2853 5136 2629 1755 9473 6556 4259 8143 4678 6062 6817 8741 1739 7515 6648 1514 6758 7611 2382 2791 3012 9008 2604 2801 7825 7836 9194 1569 2500 1860 7679 6789 9033 6346 2089 6522 488 2450 9232 2136 8950 7470 2620 3413 2364 5118 6843 5274 9265 3906 4851 8160 4673 872 3199 6797 5084 5658 921 5109 1644 684 7115 1337 3805 1036 5518 1590 7205 3181 1150 472 2521 4284 2970 2498 8849 9340 7977 2079 5870 2025 7300 4 9011 5736 9415 9382 3336 7453 1775 8479 3315 5298 5597 2803 9300 8748 6184 4804 7981 2664 9180 5989 9424 7588 7837 8107 1325 4837 7539 946 1913 2347 4744 5150 3345 8366 4102 6376 8682 245 2281 2742 7740 7163 1906 8974 6917 9009 1537 2515 7947 2322 7808 8137 3658 26 4289 3631 7711 8322 612 4546 9405 2786 838 7309 3974 4707 2931 5831 2559 3693 5911 7386 8490 5239 1908 5862 3941 1722 8869 1567 7056 3767 9341 3579 5837 7053 8389 2651 7762 5325 9063 7117 8070 986 6094 2326 4210 2721 1133 9258 2114 2051 254 1369 2821 516 9073 574 406 4762 7001 5105 3946 421 4279 4387 7983 5630 6397 7284 7088 6493 303 7715 3854 2453 7468 2429 4931 674 388 4684 3822 1182 3556 5721 7466 5490 7379 9402 993 5280 7660 5228 2695 8284 5387 5502 159 7502 369 5438 3326 5500 8231 3817 3214 8708 5168 5259 6621 7775 3573 566 579 6141 7870 2722 8044 3185 1912 6749 6997 4951 5877 4816 3373 4092 4037 8736 2319 8583 1529 5799 5841 4437 5891 6879 4517 3349 461 7567 775 1153 1187 5041 3588 8485 1160 5655 3654 3720 3826 8818 8906 1940 8775 4998 6641 4640 2193 3732 8821 380 3952 2245 8840 869 3803 4293 578 1257 9071 5167 7317 6581 2165 4139 3259 8903 5985 7496 601 5443 5317 2614 2585 5117 1229 3696 3502 7842 6136 3638 2628 323 4381 6989 6218 284 4818 7254 3419 214 3107 3582 4810 3648 201 429 2681 5329 3612 367 2859 3937 3848 3472 7068 7202 1503 8685 8349 5276 8969 8155 7339 6048 9367 8030 6437 7987 3150 2816 6536 9098 5332 1725 728 2672 7956 3234 977 2377 5024 546 1368 5729 6663 4825 4506 3851 8169 7197 6870 6107 2938 1138 7673 5556 2855 6411 9377 6265 1889 1105 4312 7587 9494 221 835 5854 7527 628 7266 3318 7863 3461 4030 2012 7231 8620 867 7937 2087 5125 4775 5471 1191 6678 4807 2988 1224 8954 6710 2461 5296 2818 1984 2426 5345 1409 2472 5840 4099 3392 8795 228 1181 2232 4160 9261 2769 8050 2146 8509 9024 4298 8301 109 4706 7072 6060 6142 5938 2280 7975 6630 4311 7946 3987 3536 3969 5541 565 8230 5420 5666 7746 5461 3543 1143 5407 4460 6869 8994 3700 7133 4569 6229 8154 538 7011 9397 1275 800 3920 6507 3591 9263 7565 3423 7761 8246 3066 742 3936 1583 1444 8521 2809 8814 5583 9390 74 2830 9249 9368 2525 8614 7558 1193 5686 1907 1975 6821 7817 6826 198 4227 3995 6468 7000 2209 2052 7872 4936 6482 473 4518 4131 6696 1188 6680 335 1310 5376 19 8168 762 6858 2213 3369 1461 2230 1916 1818 6235 2384 271 6541 541 7747 4492 4113 4723 6738 2653 1277 6566 4427 4738 865 3163 4833 4647 7674 8609 5810 2185 557 4656 4269 9470 3262 8704 1943 8390 1039 7233 2039 1456 9292 1438 6057 8247 4396 1208 7533 8434 4724 7277 5449 1062 567 1387 7794 5995 2386 8085 9331 9138 2983 2584 621 5931 4404 2182 5128 318 4844 1169 7312 3425 8556 2159 2017 75 2108 191 286 108 1076 6109 7559 8845 8410 3925 791 2478 6640 4347 134 1619 3647 9353 4693 6894 1994 2523 8505 4544 8288 9394 4897 7015 795 3892 6822 2666 9139 7652 7622 3085 7439 6463 3715 8002 2376 413 5217 3819 4654 1870 8368 184 7821 1924 9403 6044 7055 2172 8732 6481 6336 5823 8504 5775 3869 2949 4110 8813 7176 8438 995 553 7927 4186 2342 3388 4567 3713 2103 8126 1845 4737 9482 5122 1884 1675 9078 4898 302 3464 296 6345 6560 712 6365 9191 7944 4895 5741 6364 1273 5639 3165 7153 8924 1925 5342 4746 7685 700 4721 9365 8165 2659 2272 1059 9077 1698 7273 1268 9488 8594 2242 2020 8067 8201 7694 2366 8557 8151 3505 3432 2718 1145 2686 7812 540 2131 5653 8364 2560 2673 8395 839 1651 1618 7698 3589 8084 2562 1800 3449 6204 8952 5460 4834 672 3669 8565 4960 1501 5064 2239 2296 5563 8739 3047 2578 3615 4273 467 3161 6086 6765 7593 4545 1807 6588 8819 7964 8040 7934 7179 2469 4610 269 883 5621 1028 6910 5753 7446 8804 8967 314 7773 6672 5305 6083 1998 5269 722 7526 8601 2683 6213 7797 974 6807 1122 3128 300 4523 8933 7287 8080 2203 1779 5807 998 4176 7733 1549 5968 2637 5142 181 1281 7127 4431 8815 9266 3541 6815 3144 7100 5789 856 5584 1802 3670 1148 6384 7575 2665 8816 5617 657 1592 1765 4765 5776 2276 8446 2173 7175 7504 8896 7189 5020 3926 2494 3483 4570 4711 9439 5857 8329 4815 5209 751 2244 1296 8352 298 3781 9314 5733 9044 5991 3761 7814 235 5797 366 9480 439 4451 3602 619 5291 4568 5225 9322 5480 7318 4256 2057 1334 3324 866 2546 1882 1376 4208 6991 6812 9496 5969 4308 768 1398 6615 5496 2715 5668 4068 2400 4631 7063 4576 2799 265 2800 4835 5737 3428 8828 8375 1763 2946 5920 8640 7915 6599 1194 9434 2792 4074 8330 7399 5835 3918 5299 9376 7859 416 6324 1955 2329 2720 483 9425 373 5967 3238 7162 7781 4522 6268 1373 6889 1303 9030 434 2442 7668 7494 7165 4166 8701 1246 3501 9 7154 7706 4705 6084 6618 5133 2752 4957 7800 9012 3015 763 2226 7136 2982 2905 1674 1132 503 9329 9209 1933 3870 4207 2705 7702 6587 9271 1678 6368 4800 5755 5404 7777 6976 5431 1088 4373 7139 5498 7348 4852 1121 111 7471 3818 7443 3831 1790 1005 4171 9289 7840 8170 7789 1090 9288 8637 5011 2274 9320 1356 2234 6860 6435 9104 3206 951 4527 1142 8657 5719 3013 354 4819 4948 3190 3970 3800 4039 4758 8777 5359 208 7850 8429 5637 5141 6154 3603 7851 9068 9380 2186 158 7239 4666 4453 2772 8909 3079 4641 6896 3872 2504 6209 8998 3459 9278 7656 4928 5864 4419 3529 7171 9491 3121 4414 962 1433 8462 6143 9142 6714 3858 4046 4594 4507 475 1840 5850 7708 3656 1345 5338 4599 5647 5525 6919 765 8402 7424 6567 978 6887 6330 6476 5163 2036 8501 5295 3902 3812 9206 2483 3789 1004 9358 3600 5233 7718 9293 1827 5179 8293 3516 325 5159 1821 6375 6551 4177 6766 5805 4926 3361 7016 5341 3070 9038 5352 3334 9336 7680 6171 9421 2446 3983 1395 1948 7802 1620 665 7580 9031 2094 897 3267 9225 4376 3429 5126 1385 1784 1873 7867 633 1934 2220 3384 4750 7623 7647 9352 1177 790 8491 2740 5935 7585 8351 8312 1430 1962 168 8698 1787 3436 5868 3564 7354 52 2111 6748 2888 110 4999 3572 7185 8229 6066 9227 1690 4217 4736 5424 7426 6054 4749 445 1606 183 261 5435 4400 8071 6183 8792 6754 1652 9305 5785 7450 6116 1859 8266 7683 7460 6962 1363 7297 6654 6494 3410 1360 1026 2059 1157 4542 5007 4031 5751 5656 4586 7672 9074 5394 5544 7215 9119 5005 7347 8371 3628 1046 8197 7811 5090 8481 5188 6392 8124 6682 7949 1343 643 4672 6078 3743 14 355 1002 5898 2044 7699 3577 2279 6335 2081 4794 834 1973 150 1825 2589 5026 2338 8215 6043 5256 7749 9351 6277 5767 2773 8383 96 1961 4455 49 1214 8584 5365 72 6306 692 8825 2661 3017 2265 4362 857 5734 1329 8503 7076 7568 861 5419 4310 4549 3866 36 593 7362 2965 4916 1904 9032 5264 1970 1079 8746 9087 5079 4136 3856 7048 2739 4669 2743 8587 7935 6702 7726 7392 3277 4962 5867 4392 5046 8826 147 2714 5720 44 7361 3325 7807 9435 4614 494 5035 7168 1465 531 7914 1929 1291 8745 1853 832 1729 6257 8311 1319 4029 3802 1119 8226 2309 4280 7230 644 3313 9318 3959 4915 3836 4813 4197 3547 9414 4470 4502 966 9474 4009 6722 6424 8868 7138 6613 3948 4457 2156 6801 1392 6064 3834 6661 3141 225 7144 5374 8993 4592 3815 6432 7409 5838 8525 7595 8807 4581 8333 2627 4530 6305 97 2728 2930 5946 7924 8033 6227 2292 7125 7184 796 7972 8442 3019 1689 5982 7768 4864 887 8778 4888 5051 1968 262 9256 8926 361 5199 8764 942 2063 5410 4397 1472 2262 9310 5422 8591 8567 7499 5184 1494 6602 2457 8791 3156 3845 9064 4306 2966 9407 8901 3524 9498 6961 9181 4221 9497 7832 7705 4077 7841 3904 2756 2746 54 8421 2134 8316 1996 5860 2753 1715 8823 7550 8119 810 7073 8056 4692 3067 2088 3673 9150 1601 4609 5594 3679 6745 4071 8306 5272 8872 8418 1415 4939 4562 6439 9054 7292 678 179 7039 7080 878 2451 6164 476 2042 8097 8000 2488 4821 6120 1201 9049 3978 3404 63 8684 6426 6021 4274 7142 1077 82 831 2608 5595 9234 2789 8689 9065 4598 8145 8089 3044 7033 9452 9472 8589 8457 6907 3024 3916 1554 2405 2687 6442 2416 2945 6070 5306 7089 8324 4220 2351 6683 8052 1050 4152 7337 4938 7351 1736 4286 5635 2189 2493 5580 305 9183 4402 9056 6233 1367 3083 3867 4500 402 3376 4468 8923 5347 3363 6670 9437 5392 8633 3859 741 4790 2297 1141 3293 2199 3951 536 5930 2331 2682 5565 489 2207 9438 1429 6786 877 8023 6819 8494 9302 2915 7605 1989 4189 1679 1599 4958 5278 4140 2054 4223 3082 3405 5869 5371 4056 3903 6954 8782 8921 7606 6111 6596 7535 6855 6053 4263 8635 7368 7282 5908 6045 6816 6247 2022 7045 7788 6323 2642 730 9446 8249 600 1029 4856 8396 422 2040 3566 7257 1735 5893 6689 8068 4088 5458 8515 8948 581 638 2880 1115 5547 852 1125 5974 1126 4163 2863 8423 5206 5303 2293 3763 6215 8265 154 5572 4969 30 9295 248 2124 2475 336 29 6192 9393 4107 3911 3933 6779 3026 2307 9311 9481 1528 7358 1750 4238 7421 6535 1351 6982 4170 4560 9431 1259 4466 3768 65 1129 2071 7500 7883 8127 3832 9371 5843 5993 3698 7999 1297 370 3188 7459 6547 1284 6069 3158 855 7848 8972 2921 8673 2782 2734 7871 8907 2404 8142 5614 8662 4481 6381 6173 6775 6068 5892 1888 9364 7599 1033 8493 8037 2937 2939 5363 8645 8102 7754 4789 2992 8870 8824 8038 8916 8858 8798 1515 4323 5088 374 1957 1462 1353 9449 3367 4605 1331 758 8654 3531 7938 961 6943 6036 6785 7603 8280 9333 2624 5262 3391 529 6597 8013 5304 7250 1301 4978 3097 4242 3379 2928 9153 2068 8618 345 6990 5186 4128 51 5659 8647 2709 5761 5744 8780 4625 4977 4974 399 3553 3554 9182 7464 2058 4886 3450 4532 9308 3977 4853 613 24 6818 4906 9173 275 9276 6521 8570 1699 4025 7905 85 4778 6498 9372 671 4476 1705 3528 4010 8045 3444 9168 8403 1930 5104 1012 7454 3155 8005 4580 8200 4841 8742 7940 4526 3240 1837 4628 2408 7099 1166 3139 2423 5158 1040 3787 359 1770 5165 5123 7892 8946 7023 4572 6921 7232 1305 247 6073 2414 6291 2948 8558 3109 8098 4748 3368 1848 6856 703 5244 8785 7596 1171 5226 2315 9171 8706 7536 4065 1222 8680 5028 646 2359 1506 3846 6553 8793 7174 432 1574 6568 1538 8431 8277 8731 18 9324 8032 4846 4930 1577 4541 8797 5696 6939 2840 6973 6717 6342 3643 8314 4175 2433 4836 3452 8702 5279 3112 1997 2955 947 4630 7151 8624 6421 3901 5207 2126 8519 9436 8297 8078 3753 8149 1276 4180 3421 8182 7739 3862 66 8447 1243 2643 155 2190 9020 7847 3681 7082 6811 8830 6138 1380 5510 3490 5932 1247 222 6193 9091 2802 7737 7957 1195 8443 7984 446 6370 5224 5367 6984 2577 2335 9243 5996 3068 1388 7524 5613 1531 6900 7069 9019 4296 3270 8123 6049 8386 5356 8264 8286 299 3478 5385 8328 4798 6027 9218 4563 8176 6598 83 7976 2927 2868 6181 7923 452 9469 1161 5408 7485 4932 1826 1576 8729 6747 8024 8931 8428 6952 7995 8842 4464 606 334 9132 3064 4689 249 6286 7925 4109 8533 3412 597 9112 2619 1493 8630 2957 3944 917 6165 9082 3311 2314 1880 3833 7425 2113 7610 6198 3707 4763 1634 3984 5902 5065 2549 2693 5022 3544 4795 1263 3521 8104 6593 4148 7123 3559 428 864 1454 8984 242 5596 8912 693 2158 8783 8665 3394 4364 1081 1066 7525 2650 1414 7084 4352 3168 3129 5488 3304 7186 3791 5795 5454 1362 7864 93 1510 9133 6771 6506 2501 3351 5153 8766 9461 6388 469 1872 5929 8636 1347 7061 3447 2636 4735 3051 4040 2630 3779 2047 7725 1130 3512 4986 7989 2807 713 1014 5953 6923 4848 8784 1604 5421 6633 7374 35 7968 7148 3411 2278 5469 1661 7114 496 7085 1524 9014 5876 2690 2771 190 3882 6216 8224 377 5623 2540 5760 4292 9284 2117 5120 7640 3125 5017 6838 4327 3823 3279 1767 3797 9281 3364 5429 5402 6029 7939 8497 3608 3143 7458 2612 8206 5642 9096 6994 9223 8566 2902 4769 8059 9468 8904 8116 4461 7288 5992 2527 3652 5675 6529 7263 9388 4196 3907 5827 4145 3320 587 100 4919 2883 1210 5555 2171 2926 4952 6033 5739 2611 4619 5714 3968 6284 5494 5711 2374 1170 2495 4360 8234 1495 2575 6103 1721 8986 1875 2379 4543 84 3785 1413 411 5900 2178 7030 1086 6555 22 1712 5045 4961 7067 3721 9026 7736 4828 2944 2236 3873 7090 9210 8114 3498 9076 2989 378 6804 1871 8448 13 8193 1474 4597 6101 3485 6512 9406 3617 6619 5853 2914 3799 9190 4384 8436 3358 9500 637 7617 5135 890 2098 3310 7324 3560 8205 2023 3979 1585 8523 144 4014 6176 807 5602 9315 6369 6967 5591 2815 311 5152 560 3333 2223 2449 6273 2438 3173 5699 696 7961 7137 4105 1533 2634 8715 281 5372 776 3598 1550 6344 4578 6987 267 828 563 7644 91 273 6152 4135 954 7252 6996 3088 4412 4878 6242 1693 4245 511 5644 3218 4123 7562 944 752 6382 1850 6124 6146 788 5984 8181 2622 3094 6872 7104 4281 9212 3036 6591 1082 7822 4855 2663 8937 1774 992 3341 7918 4827 4890 8802 3204 7222 6977 4979 2061 6909 4283 4588 2479 9307 8714 1405 5812 6080 7264 4465 699 4241 3613 5663 7696 3050 3847 8472 6605 7730 984 8232 7484 2662 5171 6212 9296 2861 4270 1258 8532 1520 2049 3774 2250 760 5515 8580 3354 4420 4428 7119 5811 9287 3280 1446 3772 6798 8477 3005 2463 7416 3457 12 3481 9022 8981 4539 7879 3607 2440 8399 7717 2340 3806 554 1010 3585 4989 6768 8384 8296 3207 4444 5903 407 9441 5083 2532 2900 2084 4732 3212 6951 5881 131 2997 907 3242 6486 5866 10 6117 5688 5205 3004 8799 6972 1535 8883 4817 2031 1184 3893 1540 4406 5524 8100 535 4339 4193 6282 4521 3352 8885 3917 7952 1158 5641 2375 7411 8875 5601 6993 4061 8585 3884 6383 4941 9051 1336 7158 7732 1655 4651 8003 8668 8393 6159 1457 5337 1643 1285 8886 9458 7664 6225 5979 7408 806 4739 5316 5027 6350 935 329 8020 705 551 7991 7930 773 933 4953 152 8626 5926 5145 9493 3722 6423 4927 7066 1700 571 4054 4370 3232 1378 3510 4361 4203 3086 5050 9355 4683 6707 6957 5740 6825 6002 3857 9027 1499 677 2556 391 9487 3480 7152 4788 816 2155 8049 1777 4904 7031 9442 5275 1905 5382 9235 4759 4743 8450 6201 9416 912 997 5314 2398 9398 753 8508 8272 5988 4741 3766 8750 5629 4367 9466 5114 1628 5603 2640 223 6853 4267 5691 7758 4120 4677 6693 4774 6763 7 8118 3203 4255 5418 7865 6631 6451 497 7767 7707 8856 5107 1563 7210 2110 725 5762 5191 1047 1443 3563 996 1103 3621 6352 6606 2332 1570 4607 7432 7093 1289 8489 1965 6245 9447 2294 9066 1672 9040 4232 6017 1 2806 7662 4072 2328 7241 8156 3569 9490 1128 8754 2776 6150 4036 2601 8518 8065 7719 4349 4155 4446 395 6219 7898 8712 4893 4085 6759 1935 8244 5466 3283 1198 8012 5888 8542 9144 8541 2407 1406 8694 7038 2097 120 6298 8836 3455 7770 3651 4933 8417 1649 4488 5293 2195 7665 4945 6835 1403 6128 7820 8094 3999 3396 814 1832 7648 1375 5247 4358 1539 603 2669 7724 7396 7331 7111 8902 1113 6727 7642 7778 9140 1610 617 3986 1270 3680 1892 8321 2950 8210 2716 7381 6464 199 5625 2072 8559 5907 4184 7866 453 7461 211 5679 6254 8899 6430 6503 2311 704 8440 1272 7667 418 2358 9007 2798 3377 5769 679 2539 5634 2519 2779 4785 7261 5504 5662 2129 7501 4450 9035 37 7143 2109 1176 7330 6487 5861 3103 5772 919 477 3355 9095 8483 3542 6097 1231 442 8499 8790 5748 5330 8962 2507 4620 8743 4407 3000 6292 1732 8610 1581 7440 1117 8722 3399 2713 4338 3714 1565 1720 6788 5998 9455 8941 1946 1396 1060 8164 3694 1290 7598 833 8999 3574 6646 967 8153 4761 1799 8054 3611 4343 3254 4490 923 1863 4134 6009 5138 3676 7378 4554 1543 4879 5788 2684 7495 1811 9196 809 7087 5879 3580 9244 4335 7710 2860 3824 4436 599 614 126 4704 8291 3950 1910 6147 2730 1717 4206 1696 5553 7161 8415 9185 6937 2676 8359 3507 7019 5077 234 691 7193 6657 2112 4233 8347 5592 2870 7345 3018 4917 6673 7219 2857 2144 1483 7473 7307 7380 2082 3562 3057 8346 3427 6491 5883 1828 8753 3407 1642 4479 6211 4859 5615 7875 8878 1594 2016 2316 2367 2009 5331 938 2935 8718 2738 2122 6531 3912 3027 723 5047 1035 8835 5856 957 7145 57 6609 9102 5250 1500 2668 1359 1978 6447 6275 6569 6223 8254 6773 6144 821 3874 2004 3219 3494 9039 2050 5470 1625 5497 1253 3022 6580 985 5981 4603 582 3730 3642 5499 4424 6603 6415 2157 5882 6034 5703 5718 7364 4849 8398 4473 2327 394 7116 6550 3935 7543 3417 7208 5040 913 8862 5075 3889 2380 2794 4776 6927 6297 6446 1417 8796 3202 4052 7765 6575 5646 1525 6303 6708 8575 7191 2552 4438 2029 2231 4791 8228 5692 8008 4108 7237 5364 393 6720 1304 2545 926 8621 6035 2712 3549 1321 6220 797 2100 7744 4344 8445 8380 7305 6998 7313 5253 3160 2893 68 9207 6950 4920 9456 4515 4276 5311 6662 8853 8670 650 6061 9149 4850 6429 4295 2834 7332 1037 3440 3038 1836 3458 2219 3551 3344 3727 5791 4781 3111 1358 6675 6734 6196 3211 7584 2490 6824 492 5605 8125 1949 3433 4209 2116 5481 9230 8309 6380 3020 129 8652 3931 2378 805 2891 81 8238 4540 4875 8433 4913 7792 2760 1551 362 1052 7948 6123 2026 197 7772 2246 2065 8219 7827 1724 347 5936 9129 4754 8664 6208 2597 6076 6276 3048 8336 2609 4985 1140 2253 1611 5801 6230 1613 304 8529 4658 2911 2484 6524 9362 7291 2215 7810 2428 6934 1622 6113 2694 1481 6135 4713 6452 5462 5942 2805 6363 7691 9269 2216 3496 5073 5061 94 1266 328 6583 3406 6665 7393 1168 5468 4715 3550 7615 7636 711 2227 7008 3515 138 8681 6320 8761 4937 642 3705 7868 7993 6217 3468 6930 2 200 3356 8771 2302 3046 465 4491 166 1921 9246 6723 319 6260 808 2411 3558 8615 6920 3213 1985 1947 7395 9072 1893 8388 8535 7216 7826 3724 1772 5916 2148 4050 8500 8707 7256 1741 8088 747 3793 2355 6039 959 1588 127 8334 5958 9172 4411 4602 7643 6744 4447 3493 3625 7507 8223 8914 7108 6394 6823 423 3784 1682 2396 8721 5579 3810 8779 4842 4300 486 7943 9145 6862 2892 7513 3497 1706 5092 6299 1522 1650 33 5706 7194 1753 4371 5546 1627 5778 556 6947 7753 8317 1572 8077 4082 8294 8568 454 5463 3890 5362 8517 58 6251 8676 5366 2644 9001 5283 648 1338 9280 5101 7449 5830 8204 7861 7514 6262 6890 6671 1089 6549 1816 6371 8331 9348 8895 9084 8076 3947 1019 5076 9115 4393 4876 4002 874 230 4032 7299 3108 1065 8930 419 7223 8363 953 1808 4374 3519 3975 3517 5678 3071 3786 320 976 3808 4514 4575 3359 8250 9177 3136 1771 5292 3972 2685 349 7422 8629 4513 7463 3718 576 7356 177 6278 3756 7845 9236 2125 4590 3988 8208 2547 1945 6419 781 1295 1922 8545 9428 7888 5959 3860 1927 7406 8010 9100 3476 9042 844 2085 6288 4591 7973 6988 1316 3712 5817 2056 2095 7218 4787 7441 779 2459 3923 9151 2073 5725 1822 2360 4648 5432 799 3065 1865 1216 5383 4116 8767 7835 8064 4434 7651 2872 841 5885 3533 6620 1733 3002 3054 4275 709 801 5012 4561 702 8207 8132 2123 9401 3145 2847 9099 8955 8179 2811 9216 7320 7121 3092 4552 8611 620 2820 1694 3922 2392 4606 9161 2334 1149 8139 6410 4557 9408 1792 4845 4035 630 5568 5784 4965 3194 5334 4955 5212 3701 6538 3486 4187 8991 3599 8287 3381 6561 2403 9316 3215 8063 1070 6676 7314 8183 1849 8693 3919 3105 3561 5297 4247 936 7878 313 4377 9003 4655 6355 3759 6334 5558 4336 7922 891 7669 5016 6511 490 1364 3291 1589 4489 8354 7638 4313 7075 3099 9264 143 784 5221 5042 8603 2703 5285 2707 6281 1102 4028 5905 5401 7206 6795 3736 994 2506 392 1561 480 2984 525 6190 4058 8276 5975 6457 5403 1099 9489 5405 5649 8185 4413 7035 107 4988 1858 7365 1404 6978 3076 7050 8808 278 8233 1092 6686 8353 1207 8211 6715 5100 7846 4302 1914 1389 5698 4240 5570 3140 3804 3001 8157 7074 4430 5600 5667 3249 6833 351 6913 9253 3195 5433 5986 5288 893 2594 7029 8910 9409 6246 6871 4316 4016 7555 1936 5294 2534 1939 6155 1286 918 2447 2696 6405 4044 5927 1386 3929 2632 8488 1691 2541 802 5384 4265 5270 6827 8582 6168 8298 4797 4452 4199 6236 7612 4687 5162 204 4806 9110 5519 6573 4272 5697 5339 4321 4363 2313 7260 7007 8943 7346 2373 2780 7509 8683 8273 5194 2961 5086 1548 5353 5832 3189 3552 5479 1851 543 205 3322 8945 1242 6762 7344 1424 5426 365 5845 3330 5388 236 6290 7240 3348 4801 1833 169 161 2841 7616 86 1766 4467 3754 1055 660 3029 5477 2147 5058 99 2947 5774 1571 9350 4699 5414 780 6584 7670 185 4892 2397 8391 2591 5848 5514 9237 7591 7921 4935 7491 7095 7304 803 3632 2224 5286 6867 4188 1190 3522 1783 6285 3418 401 662 3331 5913 3939 8358 8034 5925 3583 253 8011 9389 2978 5453 881 2999 3876 2503 3095 1846 6239 748 6534 3525 7433 8016 8703 2485 2391 6746 2454 164 6594 5537 8117 9224 9178 8686 8537 767 3725 2565 1087 6761 6767 9379 1199 8569 5964 8129 4585 8111 5509 5014 922 524 5137 813 2812 464 219 6796 6340 6133 4690 7120 6565 2586 4793 1517 7614 3339 1798 7276 6160 4019 5780 1408 2468 2445 5238 4717 2505 5009 716 7372 7081 9392 5241 7579 9061 3526 5308 6685 3639 4026 9045 2864 598 5606 1032 2221 4900 5130 905 1992 5779 3257 9477 973 1400 6180 5851 9335 7275 69 2456 4792 735 7971 484 1624 7974 9136 89 820 7487 7447 4873 4902 1810 9321 6050 4045 7653 9113 4660 9286 8561 3750 2918 8827 4959 7227 5875 1031 2749 4049 6006 5284 5440 5333 3350 4494 9135 3976 1283 9058 7475 3532 7757 1778 2409 4777 7005 8419 5672 3227 64 2894 7377 4874 8188 70 6645 6114 6041 902 9282 9226 8919 8397 8184 3151 4686 3479 8061 6813 754 1007 5582 3424 2973 6932 1937 6563 6868 8028 5948 5195 1817 4034 1617 3023 7394 32 7530 7782 6013 4357 8867 3245 9410 1785 4385 244 6828 7880 9088 7958 3258 55 3069 5455 4814 9165 6733 7628 8925 5223 317 5757 1931 9373 6205 4987 622 3081 4101 3571 252 62 2836 9444 8543 5723 2005 1478 4478 2353 7512 7043 8854 5676 7159 4994 6453 7064 5072 4249 7367 4956 8810 4519 6408 115 5155 7547 9432 5562 5618 6808 8983 3230 7183 2153 2553 727 8258 4007 7483 5895 7373 1021 5909 3809 1382 187 5301 8811 8128 8152 5588 5395 534 6803 344 2735 1895 2764 1001 6769 8513 6980 4918 6158 7894 3719 3537 7954 2000 4399 346 5361 5517 1518 8408 862 4287 1960 6953 6063 6226 2605 626 8547 400 592 6445 5456 6031 210 3871 6544 7682 8884 1967 931 3504 7329 2237 1112 4328 3964 3748 4471 4486 1287 8320 3393 3881 7537 2744 5590 8877 1558 1621 5 3031 5227 7020 5115 316 7510 6774 3747 1782 7712 2874 7532 141 3695 4696 6170 4857 327 5816 3709 818 6030 2554 7200 101 8259 1422 9122 3775 8046 3548 1654 1898 8460 5315 4004 3473 8995 2080 3780 7187 6134 3534 6897 7849 900 4708 3096 8043 590 7003 6995 5628 1260 6131 7873 9154 3530 3184 509 5406 3133 4190 9109 450 2432 5792 6295 9052 1541 7342 6776 3380 6443 7310 8838 1680 6692 1437 6162 6182 3058 7325 8058 4529 8069 1809 5326 5559 5313 4718 5957 2733 4971 8162 4505 3538 5904 8480 6959 372 836 3321 3386 2101 3605 549 8957 9297 1370 6586 4469 2181 443 2240 255 333 719 4126 5813 2754 5695 6412 6098 8900 7321 627 308 7688 1760 6895 7926 2645 6793 9130 4645 1213 7444 9483 9195 3149 6179 6935 4889 5054 8175 340 6916 892 2167 982 3637 658 7363 8404 3942 824 2845 8461 1502 4334 6859 9067 1709 6805 2318 4510 9081 1315 6040 2884 7262 8009 1466 1477 1609 4309 7959 7498 8920 2942 1556 8295 7027 8697 1056 3223 7335 4657 1322 98 2480 9479 5577 4504 9418 732 1666 3328 3146 7040 3272 2512 7890 28 1239 288 5312 9250 7091 2898 3041 194 3063 1451 7833 8304 6901 3649 2887 8337 2924 6258 9231 8734 5290 2424 8949 4151 1485 6713 1449 1022 8898 6343 1043 6691 1829 4230 2106 493 153 8019 2251 4993 7815 988 6922 1793 1101 8411 9120 4215 4768 9214 7146 137 9016 9186 5636 9118 67 7569 1342 5036 1317 8855 1899 156 1861 2850 4811 2719 4831 8282 5529 8112 2862 8079 2967 4662 297 6725 3672 774 9157 5180 5681 3844 3035 6830 8355 7540 9111 8740 8131 1340 2679 6944 6151 1695 1144 769 689 1864 8475 3949 6420 6848 7247 3692 5398 6504 1602 4142 9193 5106 1355 1383 7438 3032 6882 7112 5049 6912 906 4975 4496 1631 3342 3757 4608 941 4106 7278 6542 4503 3209 7405 3255 8586 8951 6032 937 2304 6174 7681 2062 6132 3443 2393 6576 3570 9251 7538 7113 9085 7105 2867 4564 5824 8339 7857 468 8370 8392 3629 6992 4331 5922 2977 4559 1711 4214 1391 5182 8004 8571 4359 5878 2284 7813 8927 193 7172 3241 4480 2613 3400 1459 6539 8847 8055 2164 4129 1991 4112 798 2828 3687 6016 5609 9060 3093 5533 2014 2381 6264 1734 3770 2657 2179 4291 479 4201 1562 7271 3711 4925 7766 381 8502 5081 6191 1728 7899 8437 2570 5038 3508 3910 2417 3703 5505 3113 7604 2128 9156 5263 1463 487 6403 3037 739 6059 5947 653 1094 2151 8622 8631 3764 3967 2901 4159 9131 830 8026 246 1027 3850 950 5412 5798 909 899 789 2698 6718 5513 3511 1384 5057 5855 7774 6189 4405 2610 4908 9385 6706 4475 6931 5482 2300 4982 5793 4121 3618 7311 845 8592 5242 1983 4445 1769 8319 6473 2603 8988 4966 2184 2991 7201 2858 4421 9325 2770 2090 8922 4694 1789 1236 2467 949 8598 3814 6647 8730 3420 4192 7285 1923 1876 2387 9002 3825 750 1745 7128 9137 4613 1740 448 8270 5161 9306 5833 5015 1344 3905 5006 4872 4191 7853 1963 7018 4710 6469 7006 6783 4301 8928 2180 5258 4854 5608 7303 2906 2654 3119 3183 9378 2573 2790 5917 7474 3623 9089 9169 5489 4441 7203 7900 6517 4911 8473 5465 6839 1504 846 4786 3741 7955 4244 7060 4887 5170 9267 3100 7398 1051 4299 2876 5134 694 7986 6115 6178 1137 8756 4388 3762 6015 6545 5999 7869 1221 8964 3980 8894 5520 3438 1120 1507 4369 7497 945 1891 250 4551 3382 5060 6263 4812 1988 4635 4733 6634 8136 1450 6974 8467 8747 7132 116 2774 5176 7581 8148 5632 8172 9475 87 6313 5650 8758 8345 1513 4378 9386 1394 5177 7126 4231 8138 2481 3448 7844 2452 4771 2865 8749 3760 7819 7884 1737 7294 5322 8512 8579 5000 2759 5102 4629 6846 2725 3115 1189 4055 3731 4266 2994 1509 59 363 749 6886 1667 6188 3982 706 2963 9361 6441 8940 5952 675 1776 1467 1212 5218 8315 1294 6527 6794 695 4115 6729 3798 3924 5550 746 4652 8424 934 5154 6601 6558 6407 2489 2564 5034 4354 4211 1164 4863 3773 2848 4558 6024 5624 7209 1318 595 4981 7334 4224 2200 9412 7448 930 5727 1349 8873 8678 2529 9323 847 5704 5611 1024 8724 6699 9328 9105 979 4577 3609 8239 9152 6172 341 7734 3960 6849 3157 6318 2909 2205 4348 1265 4583 7748 3353 7756 2648 1687 4337 6072 8555 3765 999 8982 167 6372 8177 9327 6037 106 2321 5475 2656 9240 5351 7676 1526 1441 6396 3992 7838 8738 2074 294 4671 6490 8726 7697 6105 1749 1593 142 4726 532 6562 45 9391 5732 5196 4216 4011 3357 6964 1804 7164 2729 4218 829 1530 7036 3383 8108 3060 7759 1801 6669 7032 3025 4485 2259 3426 572 7722 324 5971 6515 7028 3314 9338 615 6243 5174 661 4229 4053 6592 7103 2290 6079 207 6232 6325 2520 8671 6484 1616 502 9342 4235 6690 258 6425 4520 6361 4114 7635 6339 3045 6873 5121 6509 9192 5093 3470 7695 9313 9499 7382 2254 7577 8506 9217 8616 8817 3594 8563 6885 6877 352 4639 397 5413 2107 3565 1108 6520 7714 2708 2897 4257 5183 3596 5933 8890 7600 5222 2041 7621 9046 4433 7065 1206 2727 4881 9255 4027 8173 8103 1681 2852 8340 3010 7472 2502 1559 8121 56 3710 5554 4579 6981 8979 5673 4531 3253 8882 7156 7228 1436 7270 23 1470 9143 5355 8932 715 7417 3996 2027 5070 485 6908 8241 7602 1306 2748 3309 1511 7350 3091 1240 3619 3788 4435 5846 5542 3689 8492 7916 2289 5439 2524 1797 4119 6915 9464 1598 7721 3646 3578 195 4940 6878 5089 5198 7236 2150 8365 1637 5643 610 3928 9229 3586 7253 6866 3776 2045 8831 2766 3626 6228 1950 9396 969 8552 7391 7529 6712 4773 4742 9495 5796 1008 639 2758 2781 7181 5321 7412 2361 1412 7259 4653 6537 3179 3966 2295 3229 5323 2019 3891 6003 5434 7196 95 7553 7828 6019 8956 2641 3662 1897 1034 9023 2588 389 417 1646 7434 8072 5712 1841 2533 2222 8203 8735 481 9290 7752 7366 9215 4048 5651 3061 6093 1964 6495 6052 4403 3655 6294 4264 4398 2785 3276 4493 7106 6799 6709 1658 3217 5486 8470 8801 2188 2388 1573 1932 5700 792 1300 7687 3200 3292 5507 4740 6642 6595 8929 3445 8526 2091 7166 8578 398 3921 215 7931 6026 6810 1575 444 460 9162 1023 3250 3430 8036 8074 964 7258 3752 2875 8455 5172 9433 6559 667 7169 822 7889 2499 1656 6684 955 7716 5031 3880 3645 292 1990 631 721 4432 1292 5747 7213 756 3953 2152 2998 8356 5200 3053 2706 5234 9260 8217 3216 1536 1278 7245 3830 1498 9198 2934 6319 5534 2143 5095 5409 6234 2878 5377 5707 6857 3624 3839 8727 5978 2002 5085 6500 2652 8307 268 9453 266 6316 2202 7077 6700 4824 2544 9359 685 4891 875 1866 9354 482 6241 233 1993 39 7771 9356 8763 3514 8653 9070 2711 8595 3827 4018 6485 5417 4553 6378 1352 5887 1197 424 8096 3861 5768 2266 6770 3744 1633 4867 3073 6404 4756 1557 7306 1313 9259 6474 2768 2183 8908 7079 5626 9028 9347 7389 7248 2214 9128 8725 6755 2434 8863 8755 2974 226 6730 2277 4079 6252 3118 3281 6488 9199 1615 1327 4443 4379 290 88 8341 2920 2048 7096 3043 2903 1264 7022 1835 6402 3395 1015 7518 1716 5752 5003 4047 9370 6629 757 501 3294 3650 2187 1476 5680 575 8852 2470 3509 3266 6206 4401 956 6122 192 2166 7620 5491 5914 5694 6121 348 2385 5354 6772 4389 1271 4573 8769 9486 3327 3728 2923 3894 3755 173 9326 6971 5585 1974 5257 6963 676 5369 5726 7423 5889 8514 4285 7442 8212 4823 5441 3474 6904 5977 7431 8688 7546 3482 3657 8454 6752 6309 6327 1226 4080 1123 2225 5019 2907 1223 1419 4117 8252 5245 8326 5874 8669 1902 5053 7327 9127 9429 7917 5457 7013 4033 1009 1288 6624 5607 6906 8382 4253 2348 8520 175 7735 6018 7720 5052 2692 8759 4679 5474 7199 853 1688 3462 3674 5021 9211 1761 2011 1100 2877 8576 7560 3192 2264 3268 4912 5822 2491 2441 3777 4995 1418 7269 5231 8495 7671 2576 7965 7893 8338 5113 3387 4899 3962 1309 3909 7511 8812 5708 5495 3682 4375 4137 3635 2455 3466 1354 3205 3666 4069 431 2247 9268 8367 1941 8187 5151 4168 4665 7919 3197 8115 9374 375 548 4822 7996 1803 188 2248 8832 295 2476 3323 7414 4042 8516 3247 343 1629 4921 6905 7427 9116 9069 6750 4462 6999 382 5754 2916 4325 4909 7858 8711 338 1697 7467 4118 3164 903 958 6237 1218 7646 289 7212 1956 623 9187 4534 970 3704 21 2443 1255 7709 1233 2817 8581 478 4356 6614 279 6367 7042 172 8369 3360 9188 9309 38 9298 2282 2638 3684 2341 7818 5037 4644 6688 7824 3297 1752 4093 5201 4084 2001 7404 7428 3116 1953 6203 1244 3778 1586 8643 9036 668 4130 2913 5309 3663 408 447 8015 2566 530 2176 9463 6968 3338 2592 8531 7886 1095 2064 827 122 5521 7542 5548 5997 6608 4980 5527 4498 8041 8035 8199 4697 3927 7147 240 165 8806 2745 6643 9485 4751 6782 1918 6416 3644 6296 6716 6516 8464 6148 4499 1780 1806 1248 4133 7017 270 4796 3816 2953 7750 8544 7594 7852 1111 2960 2092 2099 5393 1894 5094 3208 1455 7451 2831 6918 664 7078 4903 8361 2647 4081 7435 5082 4212 7204 7478 7198 3675 3210 2986 6366 5886 7855 146 4324 7920 4351 8551 555 1075 1788 2885 3040 6888 9034 1489 5202 5715 8487 3460 8744 4219 3938 1458 3513 6985 6505 2160 8332 6418 7936 7574 740 1824 2951 2856 2137 616 7805 1995 3758 5473 8989 1647 9363 3958 1683 1006 5955 4228 2590 6317 8897 3034 2435 6530 3288 9097 2466 8663 7637 9158 870 2829 1365 3166 1332 7135 770 1641 3282 3072 8751 7548 1302 1245 1951 5116 9330 2275 2796 5731 4416 4318 7816 4589 8659 2196 7401 2337 4346 8772 9247 8717 6250 6091 7437 6829 2269 5213 5921 8705 293 889 686 737 7862 8776 9304 2133 4178 1480 6705 5129 6809 3801 8220 901 1704 3307 4205 8944 5143 7804 9387 6409 6186 119 4536 848 3264 3152 6106 3842 8865 7280 7124 7295 3237 4667 8082 2201 8607 2217 7122 7249 2889 5390 4350 7155 3520 4830 4942 6390 7244 4626 1073 787 7255 6010 2550 5319 6578 6519 4243 7751 5804 4417 3343 904 2795 7633 5912 4896 259 527 2032 7190 5671 1856 3726 364 3301 8560 1659 916 7481 4676 6802 3886 514 4843 5717 2204 8666 1639 7265 2270 9430 6554 2477 6751 7908 7541 206 6185 6398 7413 6444 2895 1768 4060 5880 5140 3641 239 583 5665 3378 7658 7887 4555 2530 9159 8113 654 5976 6110 3749 8843 7755 8047 7226 8466 1147 1163 843 1911 6195 5619 1762 2135 8236 3415 5937 2075 4528 8189 7214 3865 1653 8650 6724 2132 3126 8892 8066 7566 3671 4947 7024 3634 3887 6199 4391 7014 2910 6347 3843 2356 708 1497 3134 1469 1505 232 7221 6271 2522 8690 4664 1312 2368 4415 3664 5901 8977 5400 1723 7490 5627 6161 5756 2702 1106 3265 6899 9114 3955 4803 7966 9462 2839 8344 6667 1944 3169 5448 7445 7578 6681 3535 7492 5380 8540 8530 8834 8973 3284 6865 8171 238 811 285 4720 6471 948 7025 8048 2102 4646 1442 4236 9059 6449 9053 2267 7582 1017 5638 2813 458 5631 6892 3153 8225 6 738 2286 4254 7760 8879 6099 9344 2233 92 310 7933 2980 8174 8971 3016 1852 3932 8800 1250 3699 1713 1920 6659 3733 4964 5728 5604 6736 128 4779 2971 1976 7531 5169 1167 7224 3174 466 3584 4067 8837 160 6726 2243 7059 7359 4700 1237 6582 3492 3633 9283 2406 3021 8658 4934 8240 5735 8577 171 1410 6238 1757 6329 1381 8348 5427 2968 5464 7415 3484 1030 6757 1969 2724 1209 8980 5001 9125 7663 2700 3340 8031 859 2787 8073 3198 3271 7182 6025 2241 1486 5148 9123 7167 1885 46 6129 218 4041 7352 7745 3080 5730 7776 326 4182 3463 3813 8140 287 462 6628 5230 8961 4782 2008 5724 4820 4083 4213 6308 8691 1878 602 7801 1445 2258 2508 350 8486 1942 3620 3795 729 9055 4095 1555 6941 7911 6851 6310 2890 8413 5684 8860 2623 8918 5863 1877 213 7469 1326 435 2509 6387 975 6466 7420 1225 3059 880 6579 3362 2726 2324 5059 4990 7109 6127 687 3838 5516 3489 5814 1738 7131 6836 7289 8267 1435 513 2649 2941 2130 8299 189 3540 7316 7195 3627 5430 8083 1475 3319 778 6893 2162 3888 8430 4078 5906 5705 1054 6459 3945 5633 6095 6874 6300 4059 6139 8053 586 9106 9484 1553 4111 7293 7902 3233 5709 7523 8006 4383 7002 3142 4991 2670 3821 5973 3390 9086 8062 624 5966 8255 4612 3796 5652 7520 2015 8452 8935 8938 8638 896 562 4495 1350 3446 118 5777 8387 5770 3122 3263 6847 2170 2896 960 5581 2837 2303 3956 5540 4307 8426 1448 1178 6166 9184 3167 7522 2783 3303 5249 6315 3606 1758 8202 104 4103 3506 7479 4156 7130 3593 3934 4332 3135 79 7854 3961 2357 1399 6781 5010 6249 4714 9272 6085 6153 9197 5940 7046 9375 5252 1249 4185 1124 3896 8444 3835 6055 2119 2120 7554 2826 6806 2066 9189 135 9334 8934 3849 8432 6175 2626 1135 6510 5951 7932 121 8120 3273 6604 1952 7516 3007 3335 4566 3954 8695 6377 2543 5423 9420 2410 9043 8302 1393 8871 1857 1280 5318 3500 1238 5358 2747 301 4757 8213 6979 6622 7383 927 3900 4153 243 5923 6287 7618 4315 5950 8546 851 2671 885 237 5069 7980 7489 6450 783 4501 2879 2581 1707 8851 7506 7885 5132 5571 9279 8608 4204 2352 9057 4997 291 849 7246 2731 6479 102 2312 823 6737 6434 1508 7723 2362 1999 3878 1423 6753 8889 5910 635 3269 1982 2198 8820 3011 3661 1083 5310 1764 1431 136 1805 2138 8075 1299 5476 2163 1311 8357 5501 5765 9202 629 376 8146 4624 6056 6841 9262 4727 6456 3302 2037 6462 3329 1552 2542 7349 9121 2555 2513 9203 500 3030 939 7462 202 7713 5511 7793 701 420 47 3372 6058 6607 3875 8235 8134 6351 2471 9048 9146 4638 8757 2600 7950 8511 2599 8243 5030 1890 2975 5087 3049 5682 2528 1879 2339 1320 7480 3252 7357 3055 4341 7583 5687 4390 7177 5235 1179 4709 7941 1727 924 4944 4731 4802 7639 6694 9010 8619 4910 2854 8549 5056 9101 220 772 5693 6200 6279 8441 2273 5273 5771 415 1701 3132 5522 6834 2006 3998 4271 7570 5670 5508 6248 5487 2655 1662 3601 5098 6328 5990 7370 2825 6942 1881 6207 6480 231 274 5436 3471 5368 2755 3275 3389 2819 2778 782 1708 4366 4924 5836 2399 7315 1298 7780 4805 2208 7601 2028 717 8327 5852 8642 1439 1491 282 8458 1820 8133 7286 1041 6307 8728 7629 2235 5029 6391 8752 6357 1379 6167 4784 4860 3567 7419 4222 9303 5815 4760 410 3716 263 2572 7180 6574 8700 3317 3062 9134 4459 8099 8180 3178 4020 5281 5749 3660 733 1203 7192 8101 2419 459 7728 2990 1241 7791 71 8135 6698 2145 4596 5826 652 6837 2372 6197 3973 1390 7856 1453 1527 4094 1269 5265 2053 854 8651 5447 2030 2462 5255 4096 9021 584 649 1093 8733 6221 7928 7141 6472 2003 8141 2038 4537 1109 8887 2034 7743 4372 2078 6966 8379 31 6137 8405 3659 7992 2055 6660 4535 5335 6389 2929 4604 3576 3792 
1 2 714
2 3 135
3 4 264
4 5 833
5 6 108
6 7 801
7 8 111
8 9 706
9 10 391
10 11 633
11 12 866
12 13 127
13 14 277
14 15 957
15 16 954
16 17 757
17 18 322
18 19 297
19 20 732
20 21 173
21 22 740
22 23 461
23 24 388
24 25 637
25 26 811
26 27 223
27 28 522
28 29 653
29 30 270
30 31 104
31 32 986
32 33 252
33 34 107
34 35 809
35 36 362
36 37 618
37 38 615
38 39 261
39 40 654
40 41 741
41 42 247
42 43 691
43 44 318
44 45 65
45 46 860
46 47 239
47 48 983
48 49 178
49 50 482
50 51 406
51 52 595
52 53 746
53 54 301
54 55 819
55 56 838
56 57 822
57 58 793
58 59 123
59 60 687
60 61 126
61 62 345
62 63 423
63 64 41
64 65 449
65 66 899
66 67 556
67 68 155
68 69 374
69 70 365
70 71 706
71 72 875
72 73 936
73 74 742
74 75 381
75 76 319
76 77 937
77 78 473
78 79 563
79 80 738
80 81 94
81 82 779
82 83 435
83 84 128
84 85 495
85 86 44
86 87 407
87 88 989
88 89 207
89 90 520
90 91 308
91 92 76
92 93 441
93 94 287
94 95 506
95 96 824
96 97 416
97 98 599
98 99 909
99 100 820
100 1444 331
101 1170 979
102 829 378
103 5860 363
104 8715 334
105 8179 661
106 6301 128
107 7474 779
108 7422 377
109 9059 509
110 9059 878
111 3707 785
112 8098 122
113 4024 74
114 1799 570
115 3677 877
116 1842 11
117 2852 570
118 481 857
119 6334 896
120 3434 356
121 3608 877
122 3755 553
123 3937 727
124 569 102
125 7693 522
126 4771 642
127 4646 592
128 6090 687
129 1279 676
130 3048 436
131 6684 535
132 339 340
133 3550 576
134 7015 792
135 1929 470
136 8104 627
137 4142 175
138 4407 844
139 8388 338
140 3882 511
141 3913 730
142 2743 317
143 1841 313
144 669 313
145 8999 480
146 4741 406
147 4664 679
148 8989 907
149 9189 856
150 8767 286
151 1235 362
152 7288 358
153 6757 388
154 8633 565
155 449 354
156 3678 974
157 7068 133
158 3368 855
159 3111 415
160 7796 555
161 4058 572
162 8871 714
163 3841 328
164 4120 467
165 9335 154
166 870 582
167 6239 478
168 5790 877
169 2549 126
170 5327 731
171 7243 719
172 7999 312
173 1926 841
174 5254 265
175 2206 949
176 2802 353
177 8302 410
178 491 724
179 2637 923
180 8427 725
181 523 780
182 4786 633
183 5515 944
184 3456 377
185 7314 84
186 4137 961
187 1285 714
188 1029 530
189 8473 631
190 572 190
191 2418 940
192 2997 669
193 8649 656
194 8382 481
195 8150 257
196 8533 377
197 5682 799
198 1286 995
199 5516 885
200 3221 373
201 8421 554
202 4916 665
203 6183 84
204 5722 483
205 5532 25
206 4695 742
207 8432 86
208 8007 726
209 1489 282
210 1300 337
211 5672 130
212 1037 811
213 1218 675
214 6371 775
215 5255 158
216 8106 656
217 6197 65
218 7631 393
219 2855 793
220 3122 697
221 5520 904
222 2349 329
223 2500 258
224 5808 782
225 1119 752
226 4721 878
227 8529 524
228 3811 190
229 2699 202
230 6916 60
231 1576 108
232 7796 289
233 3749 52
234 2115 90
235 9370 268
236 5528 522
237 4751 656
238 6971 827
239 507 599
240 7268 111
241 3732 109
242 7357 129
243 5147 903
244 9379 289
245 1923 196
246 4610 708
247 4750 499
248 4985 777
249 8050 45
250 5988 640
251 1527 688
252 538 338
253 7251 845
254 3296 333
255 955 159
256 8130 382
257 961 23
258 3293 796
259 8651 743
260 3299 299
261 3436 600
262 9026 577
263 6706 907
264 6805 509
265 2861 848
266 7032 445
267 864 207
268 3170 953
269 1285 839
270 7656 412
271 3441 501
272 7055 473
273 2793 120
274 8407 125
275 5141 438
276 7386 714
277 7139 235
278 9379 860
279 5328 908
280 6030 786
281 5657 888
282 9223 149
283 5915 79
284 9182 341
285 6896 711
286 1255 766
287 5881 27
288 8662 840
289 5863 19
290 6815 670
291 2962 543
292 805 519
293 2649 15
294 9188 572
295 8483 466
296 3623 237
297 1346 678
298 6447 741
299 4125 234
300 8287 391
301 1248 621
302 7450 569
303 2392 255
304 2769 424
305 4426 549
306 4818 756
307 2510 562
308 4786 367
309 5763 535
310 6080 778
311 5796 9
312 3656 497
313 4495 595
314 9360 300
315 2890 487
316 4498 604
317 8954 815
318 5206 60
319 6881 726
320 4612 479
321 6382 191
322 1463 408
323 8878 522
324 2222 740
325 4718 28
326 8045 974
327 4858 45
328 4468 737
329 3171 933
330 2727 960
331 6482 174
332 6576 322
333 4228 498
334 1272 588
335 3088 690
336 589 559
337 8117 47
338 4389 220
339 6777 723
340 8318 557
341 5050 443
342 4530 238
343 5642 188
344 8895 666
345 7106 632
346 2286 421
347 9415 269
348 2606 146
349 3615 512
350 8830 686
351 2024 875
352 6429 843
353 4250 373
354 5429 547
355 4823 706
356 891 869
357 3131 993
358 6712 486
359 9424 571
360 8886 164
361 8950 915
362 1395 52
363 5104 673
364 4696 925
365 4158 15
366 2993 907
367 7993 62
368 2071 766
369 1695 424
370 5562 262
371 6910 878
372 3600 35
373 5502 94
374 7794 91
375 1663 400
376 3647 620
377 5591 710
378 8399 275
379 7552 181
380 2085 653
381 7949 862
382 2831 906
383 7678 656
384 2822 202
385 3414 283
386 5998 486
387 3408 497
388 3475 472
389 8051 853
390 8789 61
391 9289 246
392 6936 402
393 4370 852
394 6953 898
395 6257 462
396 3481 654
397 5397 448
398 965 533
399 1964 18
400 3647 404
401 656 719
402 4041 695
403 8786 500
404 3679 280
405 8510 385
406 8111 190
407 5518 595
408 8277 886
409 6695 880
410 3196 805
411 4058 38
412 3679 152
413 1136 468
414 8196 195
415 7834 447
416 4123 260
417 7950 584
418 2803 389
419 6679 226
420 9302 394
421 6545 367
422 6105 970
423 6744 456
424 6679 469
425 8649 364
426 7617 343
427 991 675
428 8925 839
429 6289 574
430 1256 70
431 4975 720
432 3463 898
433 4560 210
434 1124 940
435 5652 337
436 8962 842
437 1469 838
438 7213 637
439 3143 664
440 8599 285
441 1075 729
442 2846 962
443 8838 690
444 3110 579
445 5548 710
446 3819 512
447 6693 938
448 1450 670
449 762 786
450 7120 414
451 5299 937
452 2289 788
453 1215 357
454 2731 779
455 2516 79
456 3283 506
457 3499 529
458 6387 502
459 7851 910
460 7480 790
461 1051 488
462 7850 239
463 5378 455
464 9172 671
465 731 501
466 3519 971
467 4599 350
468 5787 228
469 3409 61
470 2506 736
471 5260 545
472 6612 449
473 2434 618
474 4320 972
475 570 905
476 3335 535
477 4144 869
478 7672 698
479 4866 136
480 8770 812
481 6242 914
482 2640 474
483 5890 654
484 2319 707
485 9320 694
486 3561 30
487 4023 617
488 773 540
489 7464 507
490 1962 578
491 6920 928
492 4254 185
493 1452 683
494 2751 481
495 5615 391
496 4587 794
497 7227 512
498 1083 407
499 4192 520
500 6250 953
501 4481 361
502 7789 375
503 2269 119
504 5200 790
505 5836 574
506 3673 730
507 1708 896
508 6205 113
509 8530 677
510 8218 401
511 5189 492
512 5330 957
513 2274 935
514 8518 140
515 2352 250
516 2909 476
517 3374 778
518 4738 764
519 4056 434
520 3143 615
521 1314 455
522 1733 73
523 1463 229
524 8341 516
525 1591 953
526 1979 230
527 7296 198
528 4083 373
529 1508 175
530 3851 181
531 2868 8
532 5684 187
533 2395 14
534 2496 931
535 6923 846
536 5749 310
537 6608 346
538 4359 614
539 5726 815
540 2841 549
541 8830 335
542 5902 73
543 5846 623
544 7513 43
545 8268 620
546 6138 331
547 8673 620
548 2631 819
549 8030 571
550 816 827
551 4391 971
552 1837 566
553 1834 41
554 4470 794
555 3481 896
556 5003 232
557 5600 685
558 5008 449
559 5694 823
560 3367 341
561 2447 691
562 4825 674
563 6635 447
564 9010 754
565 1388 268
566 4869 893
567 6091 673
568 6535 561
569 3396 420
570 3552 583
571 6090 346
572 593 657
573 5801 1000
574 7929 842
575 3022 645
576 3209 864
577 4748 249
578 730 535
579 6588 796
580 816 465
581 9037 892
582 8395 276
583 1346 866
584 2934 195
585 1073 804
586 1446 222
587 8927 928
588 5873 316
589 7483 353
590 6906 135
591 9363 611
592 7330 628
593 4292 115
594 7479 622
595 769 938
596 5255 583
597 4966 262
598 3758 919
599 5543 382
600 6673 636
601 8202 539
602 7896 167
603 2924 76
604 5980 820
605 6605 678
606 2790 798
607 1267 352
608 3529 118
609 4843 788
610 2234 256
611 8103 705
612 2261 563
613 3600 365
614 7894 874
615 952 245
616 818 623
617 5132 805
618 7334 109
619 3601 999
620 5202 320
621 4567 553
622 9432 506
623 1244 9
624 3317 276
625 3104 372
626 6575 402
627 7510 731
628 5206 269
629 3818 855
630 1722 275
631 4283 184
632 5218 176
633 6956 90
634 1340 970
635 6285 864
636 2578 342
637 924 240
638 7998 325
639 6048 652
640 7449 622
641 7189 631
642 6834 221
643 713 939
644 4121 219
645 5844 7
646 3044 568
647 6954 266
648 5811 416
649 8815 897
650 4162 774
651 8680 546
652 7010 482
653 4989 404
654 9136 802
655 6017 728
656 8926 167
657 7562 300
658 7703 214
659 3483 853
660 7407 405
661 4822 283
662 1728 532
663 2491 947
664 7443 289
665 3875 237
666 3402 856
667 5582 502
668 7904 902
669 4655 38
670 3989 585
671 795 584
672 8220 945
673 7248 731
674 6433 981
675 9376 476
676 6549 478
677 9121 462
678 4432 689
679 4844 321
680 7249 313
681 4808 916
682 4465 39
683 7393 604
684 5196 417
685 7511 814
686 1080 965
687 5755 590
688 5572 885
689 6319 222
690 6915 314
691 752 871
692 1385 708
693 3126 102
694 3819 251
695 1037 916
696 3761 52
697 6518 855
698 6555 770
699 7740 16
700 6549 363
701 1860 517
702 3151 909
703 5152 24
704 3166 803
705 1587 56
706 6075 859
707 2468 800
708 6213 470
709 9410 356
710 7525 878
711 6070 859
712 5732 529
713 4665 895
714 4830 411
715 2071 467
716 5217 90
717 9458 94
718 9001 214
719 8349 838
720 3595 664
721 5220 1000
722 6811 334
723 7018 294
724 4674 866
725 4308 509
726 9207 657
727 5277 700
728 4267 671
729 1635 234
730 7094 599
731 8770 402
732 7828 493
733 3756 474
734 9047 811
735 6482 346
736 5406 510
737 7797 811
738 1100 695
739 8190 339
740 2907 785
741 8697 212
742 6641 975
743 7899 404
744 1778 545
745 7531 635
746 9148 465
747 8430 657
748 5520 947
749 3992 741
750 1815 338
751 9067 95
752 4133 449
753 6145 68
754 6063 29
755 3691 560
756 2065 594
757 7541 408
758 1409 652
759 4316 971
760 8727 196
761 902 254
762 6478 691
763 7601 349
764 5357 461
765 7167 168
766 7047 850
767 2589 439
768 5094 18
769 4381 29
770 3651 692
771 5479 284
772 6902 507
773 2714 508
774 5397 926
775 9388 564
776 6043 81
777 9316 431
778 4378 499
779 2168 263
780 2127 39
781 7614 304
782 2646 900
783 9251 570
784 2994 63
785 7653 471
786 7002 15
787 2364 127
788 2087 410
789 3871 195
790 6770 801
791 7803 300
792 7030 210
793 9044 261
794 5091 193
795 6954 150
796 5726 911
797 4417 724
798 3098 302
799 7106 240
800 1630 848
801 7487 346
802 5968 122
803 8893 286
804 1106 84
805 7390 383
806 1054 693
807 8315 108
808 2576 204
809 8677 305
810 7488 378
811 2239 262
812 7954 28
813 3209 272
814 8908 869
815 1697 747
816 3144 388
817 8132 608
818 2903 303
819 4806 368
820 1740 190
821 7519 777
822 6359 354
823 3894 489
824 1074 200
825 2326 204
826 7826 701
827 3798 380
828 1170 965
829 5634 989
830 3193 882
831 9445 922
832 4478 179
833 2961 763
834 6127 834
835 5056 696
836 5676 364
837 1305 737
838 4024 741
839 8963 193
840 7208 767
841 6818 111
842 6424 168
843 9205 891
844 8100 751
845 4382 832
846 2660 500
847 3487 767
848 8694 230
849 2270 904
850 6741 502
851 9253 105
852 2330 369
853 7992 257
854 3627 525
855 6894 721
856 4009 934
857 5169 420
858 6400 55
859 9406 929
860 1851 872
861 5609 281
862 8602 199
863 8610 101
864 2943 616
865 8699 726
866 5638 473
867 1212 589
868 8349 12
869 8708 322
870 1137 756
871 3999 334
872 9021 756
873 3006 851
874 2006 217
875 2652 861
876 6491 957
877 2590 66
878 2960 752
879 7246 5
880 7935 738
881 4748 877
882 6592 618
883 5777 576
884 1674 214
885 5411 484
886 7128 653
887 5447 409
888 3815 679
889 8891 758
890 5142 834
891 5073 543
892 6601 46
893 2820 352
894 7188 672
895 6713 681
896 3978 346
897 2611 582
898 8069 84
899 9499 383
900 3362 69
901 7340 374
902 3195 91
903 6470 685
904 2579 427
905 4447 256
906 1712 61
907 2842 111
908 4377 509
909 1670 495
910 8014 716
911 2134 968
912 2518 685
913 7653 956
914 8463 541
915 9438 228
916 5037 470
917 2887 849
918 7184 455
919 4951 550
920 4546 369
921 5667 829
922 8652 502
923 4942 581
924 6672 91
925 9499 948
926 3145 33
927 2309 176
928 7151 823
929 2512 200
930 8333 711
931 3840 709
932 8877 930
933 2489 518
934 6567 644
935 1538 190
936 6245 4
937 7625 219
938 4521 734
939 5253 168
940 3582 974
941 1163 984
942 1524 577
943 6638 363
944 6640 102
945 2586 951
946 8281 566
947 6953 556
948 6439 153
949 4880 849
950 2948 511
951 5347 865
952 8037 789
953 1827 660
954 2924 2
955 7226 435
956 3165 847
957 7790 89
958 9285 718
959 5976 710
960 5825 766
961 2575 354
962 4423 396
963 1710 436
964 5180 250
965 6664 81
966 7023 469
967 8062 603
968 8468 141
969 3556 636
970 8836 779
971 9017 327
972 4108 718
973 2377 861
974 8683 497
975 4247 82
976 2022 6
977 3318 99
978 8198 857
979 8279 116
980 7958 494
981 5308 196
982 5170 648
983 6012 836
984 5710 75
985 6489 576
986 7819 105
987 5946 233
988 8615 509
989 4520 213
990 9492 257
991 3625 645
992 6856 426
993 6075 136
994 5737 978
995 1066 872
996 9104 942
997 1398 248
998 3540 631
999 2864 712
1000 5779 916
1001 6416 159
1002 5427 605
1003 4480 590
1004 8716 3
1005 8997 317
1006 4807 253
1007 2656 343
1008 1991 474
1009 2166 590
1010 6901 572
1011 1066 417
1012 7254 13
1013 6225 626
1014 3337 476
1015 6296 423
1016 5691 348
1017 3333 624
1018 4667 838
1019 3733 918
1020 5195 100
1021 8456 562
1022 5787 386
1023 5440 901
1024 3599 554
1025 6196 433
1026 4979 58
1027 4199 981
1028 3871 895
1029 6375 554
1030 1954 148
1031 2513 532
1032 3168 280
1033 7032 939
1034 8196 712
1035 9237 982
1036 6529 569
1037 6672 754
1038 3631 331
1039 1750 234
1040 8110 653
1041 1991 921
1042 8630 872
1043 5351 180
1044 8537 4
1045 7894 17
1046 1763 408
1047 4888 494
1048 7100 948
1049 6431 802
1050 4065 944
1051 2750 302
1052 1319 780
1053 6969 609
1054 7670 548
1055 8606 471
1056 6381 628
1057 8487 747
1058 4793 945
1059 6397 150
1060 9316 909
1061 3443 664
1062 6437 250
1063 6088 381
1064 5618 676
1065 1207 671
1066 3103 217
1067 7699 881
1068 7768 14
1069 5163 759
1070 4084 344
1071 4937 941
1072 2627 765
1073 7771 660
1074 1815 624
1075 6025 985
1076 6769 111
1077 2973 426
1078 5713 474
1079 6184 700
1080 8177 306
1081 5094 410
1082 2638 934
1083 5779 136
1084 6789 456
1085 4787 758
1086 8033 427
1087 7176 457
1088 2611 607
1089 3442 809
1090 1426 837
1091 5945 21
1092 2127 934
1093 2797 451
1094 8938 467
1095 4195 132
1096 2560 938
1097 5278 882
1098 8272 537
1099 5529 682
1100 1216 695
1101 8083 36
1102 2727 515
1103 8153 483
1104 7208 512
1105 1527 126
1106 7392 436
1107 4988 723
1108 8221 590
1109 2566 412
1110 8282 906
1111 2021 554
1112 2886 245
1113 8198 243
1114 3258 2
1115 3700 17
1116 3773 603
1117 8686 182
1118 6797 585
1119 2907 186
1120 9375 686
1121 2966 728
1122 8692 356
1123 9289 439
1124 5340 570
1125 3210 263
1126 5025 446
1127 3439 455
1128 3089 196
1129 9337 865
1130 1776 593
1131 1691 668
1132 5804 277
1133 2131 22
1134 3060 233
1135 1334 563
1136 4821 693
1137 9016 421
1138 9244 497
1139 8075 455
1140 6087 404
1141 7476 409
1142 6138 672
1143 6791 845
1144 5962 388
1145 3072 215
1146 1623 176
1147 5293 133
1148 9161 501
1149 8732 681
1150 1322 668
1151 6495 661
1152 2005 111
1153 7575 344
1154 2976 820
1155 9498 566
1156 7740 385
1157 1849 22
1158 4923 766
1159 2033 238
1160 8417 852
1161 3596 983
1162 4442 173
1163 3106 50
1164 4460 836
1165 5747 558
1166 6866 83
1167 6833 937
1168 8835 374
1169 7492 138
1170 8714 814
1171 3753 752
1172 3544 940
1173 1786 932
1174 2497 195
1175 2363 615
1176 4529 894
1177 7858 471
1178 6063 487
1179 3890 866
1180 1554 765
1181 7795 614
1182 6029 848
1183 1510 203
1184 2099 297
1185 7970 345
1186 5674 797
1187 7336 590
1188 2332 715
1189 4108 152
1190 1827 57
1191 4553 740
1192 1858 639
1193 4678 606
1194 8444 671
1195 2181 603
1196 1637 651
1197 4272 706
1198 2998 565
1199 6782 690
1200 2008 375
1201 7077 706
1202 9500 462
1203 1403 598
1204 6153 929
1205 6984 135
1206 8170 952
1207 7553 727
1208 2830 593
1209 2322 204
1210 9395 361
1211 7782 897
1212 6284 252
1213 4794 705
1214 3612 334
1215 5790 549
1216 3930 292
1217 6785 674
1218 6773 630
1219 7726 798
1220 4467 655
1221 7892 149
1222 4938 738
1223 7629 174
1224 8868 758
1225 6410 863
1226 5993 229
1227 4543 869
1228 9328 648
1229 5163 653
1230 3211 828
1231 8088 378
1232 1243 208
1233 8005 817
1234 7206 152
1235 6484 91
1236 2265 42
1237 8495 478
1238 7385 910
1239 8682 194
1240 4077 653
1241 8600 366
1242 9370 177
1243 9221 209
1244 9322 493
1245 6279 331
1246 9313 710
1247 4254 906
1248 2552 241
1249 4151 496
1250 7724 311
1251 2236 60
1252 6844 726
1253 3110 804
1254 6064 16
1255 7678 684
1256 1794 739
1257 5471 320
1258 6000 948
1259 4008 514
1260 6718 209
1261 5920 346
1262 3238 348
1263 5310 3
1264 7322 694
1265 1476 733
1266 9048 70
1267 1408 660
1268 3048 426
1269 2993 387
1270 4386 716
1271 2589 633
1272 7478 254
1273 5109 980
1274 8334 827
1275 7434 629
1276 2198 579
1277 5632 697
1278 9291 103
1279 7728 252
1280 6626 229
1281 7144 940
1282 1454 133
1283 9056 16
1284 3647 258
1285 7687 3
1286 5187 269
1287 7249 665
1288 8933 76
1289 5551 698
1290 3011 743
1291 4398 323
1292 5385 936
1293 7455 243
1294 5679 960
1295 1512 291
1296 2428 154
1297 1625 387
1298 7509 335
1299 9395 862
1300 9083 237
1301 6503 344
1302 7150 479
1303 2107 39
1304 6400 551
1305 6507 414
1306 7109 423
1307 7672 114
1308 2054 420
1309 1517 324
1310 7711 287
1311 7531 394
1312 4784 642
1313 8868 830
1314 9499 258
1315 8338 62
1316 3614 439
1317 6276 588
1318 8675 387
1319 7719 701
1320 5118 453
1321 9159 690
1322 4155 210
1323 4093 448
1324 8401 372
1325 2614 830
1326 2544 419
1327 3498 102
1328 6134 874
1329 3701 647
1330 2332 395
1331 6457 17
1332 8583 613
1333 9195 158
1334 8210 991
1335 6045 194
1336 8366 787
1337 7576 126
1338 8513 508
1339 9054 595
1340 4769 184
1341 6153 152
1342 6922 418
1343 3228 761
1344 5898 881
1345 6365 200
1346 1580 875
1347 1733 778
1348 4802 466
1349 4473 431
1350 8514 706
1351 8199 770
1352 6649 727
1353 5803 871
1354 7340 177
1355 6840 467
1356 8254 654
1357 5747 878
1358 3683 693
1359 9132 665
1360 3504 18
1361 5543 737
1362 7412 500
1363 4770 899
1364 1505 801
1365 7973 823
1366 1404 790
1367 6714 480
1368 1568 327
1369 6972 208
1370 9494 978
1371 4734 400
1372 3477 345
1373 3871 555
1374 8875 134
1375 7865 828
1376 7764 393
1377 4251 3
1378 4404 63
1379 5578 939
1380 7098 760
1381 8098 841
1382 4529 391
1383 5013 231
1384 9499 615
1385 3370 258
1386 5771 292
1387 7426 255
1388 6854 409
1389 6615 849
1390 4460 817
1391 9443 684
1392 7794 967
1393 6509 652
1394 3670 764
1395 4743 557
1396 4595 364
1397 8495 965
1398 2208 738
1399 4366 610
1400 3211 113
1401 2128 299
1402 1937 931
1403 7038 414
1404 4891 486
1405 2051 420
1406 5226 847
1407 4649 509
1408 6185 551
1409 8181 358
1410 2688 701
1411 5940 578
1412 5721 280
1413 3096 217
1414 9266 262
1415 2627 210
1416 7146 114
1417 3912 825
1418 7160 150
1419 4095 687
1420 4699 163
1421 6076 407
1422 3156 129
1423 8003 437
1424 6870 312
1425 3093 818
1426 3243 758
1427 6679 297
1428 2149 991
1429 3077 236
1430 4235 262
1431 7244 374
1432 3788 863
1433 3395 693
1434 8960 984
1435 7173 775
1436 4369 377
1437 8777 855
1438 1458 189
1439 2463 978
1440 2496 388
1441 3300 329
1442 7029 306
1443 3975 107
1444 5136 304
1445 1972 31
1446 5613 578
1447 1688 573
1448 9222 327
1449 2197 722
1450 5900 716
1451 5084 358
1452 7613 439
1453 9413 14
1454 2539 186
1455 6827 414
1456 9007 796
1457 8429 417
1458 8282 244
1459 5232 582
1460 5322 910
1461 5310 552
1462 7535 921
1463 5826 516
1464 8785 830
1465 4167 301
1466 1631 217
1467 5872 574
1468 6711 18
1469 4025 540
1470 8352 183
1471 3936 511
1472 8277 559
1473 6195 446
1474 8311 686
1475 5437 353
1476 2134 98
1477 9254 394
1478 1904 977
1479 6904 791
1480 7482 990
1481 3592 600
1482 3076 229
1483 9128 385
1484 6074 788
1485 2625 985
1486 8208 93
1487 2087 833
1488 7103 602
1489 4496 528
1490 4618 24
1491 8658 742
1492 8889 923
1493 1632 610
1494 8881 25
1495 2432 477
1496 3876 595
1497 2571 177
1498 2989 744
1499 4045 36
1500 8284 674
1501 9166 725
1502 4097 928
1503 5026 819
1504 8947 244
1505 2954 794
1506 7411 38
1507 3712 589
1508 6536 474
1509 5530 569
1510 7524 973
1511 6881 27
1512 7319 928
1513 1871 60
1514 3037 407
1515 8623 480
1516 2041 498
1517 3824 806
1518 6358 453
1519 5084 942
1520 7006 236
1521 7891 686
1522 2024 168
1523 6422 222
1524 7843 768
1525 4772 585
1526 8786 416
1527 8145 913
1528 9015 88
1529 2587 258
1530 7609 792
1531 3906 89
1532 5922 118
1533 6881 729
1534 6681 357
1535 6644 717
1536 4644 494
1537 8988 120
1538 7885 713
1539 2341 474
1540 7219 539
1541 6900 77
1542 7403 361
1543 5514 337
1544 3430 588
1545 8384 557
1546 8686 154
1547 2924 567
1548 2287 828
1549 5267 623
1550 6979 32
1551 3797 961
1552 4787 327
1553 1726 105
1554 4098 692
1555 3561 872
1556 9264 289
1557 5240 754
1558 7294 656
1559 6650 941
1560 8084 667
1561 4493 557
1562 8596 738
1563 7268 396
1564 5886 606
1565 4880 262
1566 8982 140
1567 2916 70
1568 7787 679
1569 1792 69
1570 1718 277
1571 6476 511
1572 6053 564
1573 2206 370
1574 7347 776
1575 3007 195
1576 2070 858
1577 7623 131
1578 6654 626
1579 4045 21
1580 2306 915
1581 6109 320
1582 7066 301
1583 1584 991
1584 8919 170
1585 8904 334
1586 6639 394
1587 3395 882
1588 2629 772
1589 8833 551
1590 3776 590
1591 6786 537
1592 7038 928
1593 3743 878
1594 2648 824
1595 4561 785
1596 4556 427
1597 4230 854
1598 2058 111
1599 5919 601
1600 3096 579
1601 6586 487
1602 6858 424
1603 7876 57
1604 5514 316
1605 3789 542
1606 2392 257
1607 8025 163
1608 7228 58
1609 8860 38
1610 2130 676
1611 7205 818
1612 5490 161
1613 7798 718
1614 6707 663
1615 5719 639
1616 3072 890
1617 7016 542
1618 3819 656
1619 6006 650
1620 7688 997
1621 8256 703
1622 7552 293
1623 4227 286
1624 7257 227
1625 2214 623
1626 9259 339
1627 7801 333
1628 6584 809
1629 6529 953
1630 3560 715
1631 3945 446
1632 4294 71
1633 4820 416
1634 8566 869
1635 7559 506
1636 4164 84
1637 5300 234
1638 5216 387
1639 7227 882
1640 4728 297
1641 7603 739
1642 6932 422
1643 6282 279
1644 6302 970
1645 8690 700
1646 9038 592
1647 6917 549
1648 6226 125
1649 9110 56
1650 2232 654
1651 6013 273
1652 2272 401
1653 6872 67
1654 4907 596
1655 3619 840
1656 6994 921
1657 1819 318
1658 7047 906
1659 2376 335
1660 5087 856
1661 4883 405
1662 8403 521
1663 3053 338
1664 2394 923
1665 6069 291
1666 3867 790
1667 5719 185
1668 7314 995
1669 5662 109
1670 2961 414
1671 6793 155
1672 5697 393
1673 5175 528
1674 8145 873
1675 6548 946
1676 3901 1
1677 4607 974
1678 6102 735
1679 6498 82
1680 2979 952
1681 5883 90
1682 2985 180
1683 5180 635
1684 8159 468
1685 6088 189
1686 1779 188
1687 4059 357
1688 6570 146
1689 4405 311
1690 8302 525
1691 9157 649
1692 2321 999
1693 1851 897
1694 9490 996
1695 4191 777
1696 5841 934
1697 8782 963
1698 3064 54
1699 8378 622
1700 3039 997
1701 8635 437
1702 8905 52
1703 6049 748
1704 4096 845
1705 4262 836
1706 3216 79
1707 6665 976
1708 5783 545
1709 1961 42
1710 8552 390
1711 3827 914
1712 2283 48
1713 6607 774
1714 8916 380
1715 5519 861
1716 8789 120
1717 3572 351
1718 8158 736
1719 3182 246
1720 3688 761
1721 9292 614
1722 3958 300
1723 8240 783
1724 4918 199
1725 2444 814
1726 8201 254
1727 3867 459
1728 3583 822
1729 3548 700
1730 2463 405
1731 3123 824
1732 6195 631
1733 4081 164
1734 7733 324
1735 2120 249
1736 4816 404
1737 7351 348
1738 9242 871
1739 2618 287
1740 6236 522
1741 3144 813
1742 9200 569
1743 9324 741
1744 4298 302
1745 6098 489
1746 4836 244
1747 6133 858
1748 6520 17
1749 7166 472
1750 7801 960
1751 3817 116
1752 8507 868
1753 4831 470
1754 6991 810
1755 5954 661
1756 1771 564
1757 3900 839
1758 4619 410
1759 7412 32
1760 5413 515
1761 5390 488
1762 6155 356
1763 5309 13
1764 8354 153
1765 3553 110
1766 5191 856
1767 5407 263
1768 8109 948
1769 5903 691
1770 9310 377
1771 8577 903
1772 3857 208
1773 4972 54
1774 8566 354
1775 8015 586
1776 3507 205
1777 9055 282
1778 6670 82
1779 5219 460
1780 5474 985
1781 9153 936
1782 8213 93
1783 2118 784
1784 7005 482
1785 6503 115
1786 9008 527
1787 5369 789
1788 9037 467
1789 4130 246
1790 8010 940
1791 1968 315
1792 3682 392
1793 9069 421
1794 2716 760
1795 6004 107
1796 6802 373
1797 7297 251
1798 7539 786
1799 7054 569
1800 6054 19
1801 8580 95
1802 8564 76
1803 8125 932
1804 8583 604
1805 5158 558
1806 3533 441
1807 7518 725
1808 1941 752
1809 5031 804
1810 5360 659
1811 5979 554
1812 4141 806
1813 2815 988
1814 4798 967
1815 8655 208
1816 1921 911
1817 3851 74
1818 8295 6
1819 4989 725
1820 2449 420
1821 4835 357
1822 5287 280
1823 7885 114
1824 8609 718
1825 1983 626
1826 4257 996
1827 8960 589
1828 4799 436
1829 4382 408
1830 4165 453
1831 8501 224
1832 7595 730
1833 3471 694
1834 8400 856
1835 4008 823
1836 4464 326
1837 6781 423
1838 7674 574
1839 4701 658
1840 8698 806
1841 2627 599
1842 7410 461
1843 8471 525
1844 3016 448
1845 3722 923
1846 5146 827
1847 5548 431
1848 9120 877
1849 7912 46
1850 6505 887
1851 9446 907
1852 6098 704
1853 3336 647
1854 3301 231
1855 5124 52
1856 7939 492
1857 4884 522
1858 8654 208
1859 7930 638
1860 3688 533
1861 3906 390
1862 6000 604
1863 2341 788
1864 8765 455
1865 2353 45
1866 9014 608
1867 2680 208
1868 7641 282
1869 9479 719
1870 9461 976
1871 7146 230
1872 5987 945
1873 7096 661
1874 8941 709
1875 9327 141
1876 8251 885
1877 8045 946
1878 7375 427
1879 8298 624
1880 8123 771
1881 2997 919
1882 8425 433
1883 5916 868
1884 6450 176
1885 5896 845
1886 3306 317
1887 9168 703
1888 3707 930
1889 8789 67
1890 5979 19
1891 7792 522
1892 8690 325
1893 8249 726
1894 5486 878
1895 6375 291
1896 4387 183
1897 5896 770
1898 5316 484
1899 3925 309
1900 8236 877
1901 4337 629
1902 6380 106
1903 7757 888
1904 4553 143
1905 1929 177
1906 7595 603
1907 8521 841
1908 4723 225
1909 6625 78
1910 7409 672
1911 7623 903
1912 9058 201
1913 6480 448
1914 8166 276
1915 5405 561
1916 8143 835
1917 2730 52
1918 8557 20
1919 2429 207
1920 3622 22
1921 8001 921
1922 4987 882
1923 4406 705
1924 7534 345
1925 6177 296
1926 2045 166
1927 8534 838
1928 8474 507
1929 6704 199
1930 9442 948
1931 2643 507
1932 9030 637
1933 7089 836
1934 9444 528
1935 6786 276
1936 3325 399
1937 9346 194
1938 3544 863
1939 8666 370
1940 6730 818
1941 2029 486
1942 4083 849
1943 8747 134
1944 8687 385
1945 7011 830
1946 6891 143
1947 2253 410
1948 8371 189
1949 4709 342
1950 4275 669
1951 8370 393
1952 7792 46
1953 4077 160
1954 6286 304
1955 8184 816
1956 7414 672
1957 8365 754
1958 8764 832
1959 2680 942
1960 6492 611
1961 8292 940
1962 5730 260
1963 4370 881
1964 9225 133
1965 9179 628
1966 3970 733
1967 9138 96
1968 8160 136
1969 8261 494
1970 9362 129
1971 9488 660
1972 6439 410
1973 4417 529
1974 7961 884
1975 4187 900
1976 5463 869
1977 5865 909
1978 6503 156
1979 6017 46
1980 9055 906
1981 5208 115
1982 7986 693
1983 2615 648
1984 2764 178
1985 9090 269
1986 3212 969
1987 8698 559
1988 3920 597
1989 8447 584
1990 5911 209
1991 5566 969
1992 5053 445
1993 8038 482
1994 2185 123
1995 6909 915
1996 7603 64
1997 6630 124
1998 8249 668
1999 2920 710
2000 6275 552
2001 3461 450
2002 4611 164
2003 4623 285
2004 2284 62
2005 3851 463
2006 3108 956
2007 2062 828
2008 2155 387
2009 2984 708
2010 4613 167
2011 2519 344
2012 7089 27
2013 3321 211
2014 8744 320
2015 8205 506
2016 2056 499
2017 6276 850
2018 2695 225
2019 7173 295
2020 8451 596
2021 8292 66
2022 8440 841
2023 8943 150
2024 9245 572
2025 3861 374
2026 7590 654
2027 6308 827
2028 8248 670
2029 9194 204
2030 6785 44
2031 9467 249
2032 2098 196
2033 8479 787
2034 9454 954
2035 7318 185
2036 3497 545
2037 5803 128
2038 4507 56
2039 4237 539
2040 9330 448
2041 2687 206
2042 2487 35
2043 5901 495
2044 8600 671
2045 2661 205
2046 9140 486
2047 6032 254
2048 8095 862
2049 3407 454
2050 7266 693
2051 4275 642
2052 8687 448
2053 4707 261
2054 8908 592
2055 3380 829
2056 6414 443
2057 2961 222
2058 9341 436
2059 7250 139
2060 7420 140
2061 2691 441
2062 9265 416
2063 3249 67
2064 6263 951
2065 6069 19
2066 4637 290
2067 3135 68
2068 9197 420
2069 5151 133
2070 3604 99
2071 3133 493
2072 2282 206
2073 6704 994
2074 6832 256
2075 6943 207
2076 3047 407
2077 7648 530
2078 7486 724
2079 3441 638
2080 8784 318
2081 6633 647
2082 8282 916
2083 3603 906
2084 6114 137
2085 3662 705
2086 3767 400
2087 6829 230
2088 8457 191
2089 2160 350
2090 6853 662
2091 2246 473
2092 9437 23
2093 3784 291
2094 2919 795
2095 3078 564
2096 7027 343
2097 4131 621
2098 2333 688
2099 8588 954
2100 2213 480
2101 3744 718
2102 7579 347
2103 5037 901
2104 3144 66
2105 2725 556
2106 7264 473
2107 6211 420
2108 7202 331
2109 7753 326
2110 8457 684
2111 7779 341
2112 5055 809
2113 6108 282
2114 3121 858
2115 3366 491
2116 6626 814
2117 2415 38
2118 7881 883
2119 9403 784
2120 5878 697
2121 7504 5
2122 2995 48
2123 6263 273
2124 4418 444
2125 8293 552
2126 4564 669
2127 7559 79
2128 9354 831
2129 3383 30
2130 5808 662
2131 5327 659
2132 5499 763
2133 3408 87
2134 9078 218
2135 4050 618
2136 6999 589
2137 5620 81
2138 7688 693
2139 2832 263
2140 5415 712
2141 6400 988
2142 8072 944
2143 5229 388
2144 9344 308
2145 6542 530
2146 9174 55
2147 7360 593
2148 7158 631
2149 8211 848
2150 8962 680
2151 9232 603
2152 7517 749
2153 8349 347
2154 8029 886
2155 5379 559
2156 8102 713
2157 7750 539
2158 7899 633
2159 6361 86
2160 4647 281
2161 3018 684
2162 5548 129
2163 2248 354
2164 2569 990
2165 6710 817
2166 8851 739
2167 7670 783
2168 8191 84
2169 5428 314
2170 6334 6
2171 8127 624
2172 5090 816
2173 6548 643
2174 4283 246
2175 4334 609
2176 6710 361
2177 3609 688
2178 2266 235
2179 3039 990
2180 5948 189
2181 6745 447
2182 6867 171
2183 8021 142
2184 3061 585
2185 2740 344
2186 6942 199
2187 4578 722
2188 5721 823
2189 3164 156
2190 5399 203
2191 4761 914
2192 4895 759
2193 8129 404
2194 3436 249
2195 4877 84
2196 9265 784
2197 8354 900
2198 9062 199
2199 4468 53
2200 7693 836
2201 4791 435
2202 7115 987
2203 3018 271
2204 2696 232
2205 6890 202
2206 4590 416
2207 3390 11
2208 7455 404
2209 8817 768
2210 6250 323
2211 5525 497
2212 7001 883
2213 5166 16
2214 8424 673
2215 8404 721
2216 2587 96
2217 7554 630
2218 7231 224
2219 2761 350
2220 8921 104
2221 3971 421
2222 8039 365
2223 4987 870
2224 3333 993
2225 4478 432
2226 2290 471
2227 7725 792
2228 6557 55
2229 3364 503
2230 7027 39
2231 4478 346
2232 3736 71
2233 6247 11
2234 9379 767
2235 9251 765
2236 9245 494
2237 7136 626
2238 8325 170
2239 5234 22
2240 3061 44
2241 6494 551
2242 2387 872
2243 2810 995
2244 6507 451
2245 8608 231
2246 7174 960
2247 3035 755
2248 8666 277
2249 5353 713
2250 8703 400
2251 9081 299
2252 9034 322
2253 3937 332
2254 4852 33
2255 7023 247
2256 7347 346
2257 3522 718
2258 6095 871
2259 6006 924
2260 4366 901
2261 7734 510
2262 9490 236
2263 7322 114
2264 6433 493
2265 3081 508
2266 5199 374
2267 4403 822
2268 8650 327
2269 6819 985
2270 9070 350
2271 2277 324
2272 7007 759
2273 3450 667
2274 5238 325
2275 8576 556
2276 7702 608
2277 7554 241
2278 5323 671
2279 8402 172
2280 4123 443
2281 7483 575
2282 4848 111
2283 4301 418
2284 3394 397
2285 5308 509
2286 4554 819
2287 7358 408
2288 4627 539
2289 4535 297
2290 3216 833
2291 3944 512
2292 9346 39
2293 4070 256
2294 5170 245
2295 8545 172
2296 3613 367
2297 4075 728
2298 2387 981
2299 6791 597
2300 5443 361
2301 8594 826
2302 4206 433
2303 3767 751
2304 9414 840
2305 8039 5
2306 7302 345
2307 5393 41
2308 4553 683
2309 3281 690
2310 3693 988
2311 9058 970
2312 4418 273
2313 4763 592
2314 5123 588
2315 8390 571
2316 6111 290
2317 3115 718
2318 9244 946
2319 7743 873
2320 4175 348
2321 6194 281
2322 6134 709
2323 9497 487
2324 8743 904
2325 7476 897
2326 4500 235
2327 7649 877
2328 2840 531
2329 8332 714
2330 7789 340
2331 9000 994
2332 5919 110
2333 4048 694
2334 7731 703
2335 7683 347
2336 3635 888
2337 4283 845
2338 8810 334
2339 6698 706
2340 7140 552
2341 7855 746
2342 7352 216
2343 9179 147
2344 7164 868
2345 6016 775
2346 5708 946
2347 8559 933
2348 7638 11
2349 5828 34
2350 4723 330
2351 7235 614
2352 3824 961
2353 7211 232
2354 4369 221
2355 7657 835
2356 2487 377
2357 4033 178
2358 5643 641
2359 2616 270
2360 8463 821
2361 6405 585
2362 3650 227
2363 2591 540
2364 3848 348
2365 6288 179
2366 9348 911
2367 4541 702
2368 9143 947
2369 6807 171
2370 4224 643
2371 8152 99
2372 8783 714
2373 7552 367
2374 7377 866
2375 6075 742
2376 2599 935
2377 3042 548
2378 5737 844
2379 5945 842
2380 8894 858
2381 7158 30
2382 8483 248
2383 8118 106
2384 9430 520
2385 8443 231
2386 6769 202
2387 3305 7
2388 9051 738
2389 2591 149
2390 8437 555
2391 2811 712
2392 4755 700
2393 5182 990
2394 3999 619
2395 9133 904
2396 3984 549
2397 5974 893
2398 4026 795
2399 7183 672
2400 2666 287
2401 3110 600
2402 6752 692
2403 4416 631
2404 9118 365
2405 5956 448
2406 3621 7
2407 8404 679
2408 3239 384
2409 3629 976
2410 2729 992
2411 4869 953
2412 5871 217
2413 5429 21
2414 3769 831
2415 7511 42
2416 3719 948
2417 2985 491
2418 4259 411
2419 7223 51
2420 4125 469
2421 9453 162
2422 3055 151
2423 2719 158
2424 6414 175
2425 8126 892
2426 8809 899
2427 3706 343
2428 3647 587
2429 5355 354
2430 8447 54
2431 4684 407
2432 3237 662
2433 2796 118
2434 7053 337
2435 8642 906
2436 5700 479
2437 5325 400
2438 3824 278
2439 2550 410
2440 3055 849
2441 6896 789
2442 4399 366
2443 7404 438
2444 6200 501
2445 8686 777
2446 8856 406
2447 5599 247
2448 6126 17
2449 8569 917
2450 6033 702
2451 2871 254
2452 7531 868
2453 7131 205
2454 3551 204
2455 3183 487
2456 9334 70
2457 4519 670
2458 3181 238
2459 8442 470
2460 7370 374
2461 3191 346
2462 6986 252
2463 7288 801
2464 8125 343
2465 8290 928
2466 5258 86
2467 6569 461
2468 8827 797
2469 7815 762
2470 9035 475
2471 3385 844
2472 4880 478
2473 6695 387
2474 7827 695
2475 7159 706
2476 7027 802
2477 5487 180
2478 7966 769
2479 8909 431
2480 5437 440
2481 6604 550
2482 9301 904
2483 2572 579
2484 4974 238
2485 4097 828
2486 9434 485
2487 6930 166
2488 6850 688
2489 7555 545
2490 5317 695
2491 7628 53
2492 7259 962
2493 3428 683
2494 8914 929
2495 4096 44
2496 6633 494
2497 6018 432
2498 9301 625
2499 2771 274
2500 7574 707
2501 8845 169
2502 7679 657
2503 2934 432
2504 7418 395
2505 7236 891
2506 5404 98
2507 7110 90
2508 5575 401
2509 7019 809
2510 6248 970
2511 2938 331
2512 4509 85
2513 8790 268
2514 4945 9
2515 7816 831
2516 8797 933
2517 5421 447
2518 2991 744
2519 2536 497
2520 7463 279
2521 7611 511
2522 2805 199
2523 5090 214
2524 6035 932
2525 5745 776
2526 4166 408
2527 4254 852
2528 9167 634
2529 4007 134
2530 2984 318
2531 6804 800
2532 4605 402
2533 4199 831
2534 3602 415
2535 6602 582
2536 8111 1000
2537 2645 271
2538 4604 457
2539 8460 560
2540 2948 233
2541 8535 774
2542 3057 231
2543 4345 644
2544 8270 811
2545 3405 823
2546 3278 945
2547 3870 258
2548 3729 21
2549 6357 373
2550 2673 309
2551 3655 690
2552 4247 801
2553 3519 955
2554 6974 275
2555 6360 103
2556 9425 565
2557 2628 477
2558 8212 286
2559 3541 963
2560 6898 139
2561 4195 474
2562 5578 1000
2563 9147 145
2564 8309 88
2565 6027 850
2566 7747 691
2567 6431 54
2568 8344 962
2569 6712 109
2570 6775 477
2571 5131 170
2572 6942 828
2573 4385 135
2574 5255 611
2575 2697 945
2576 3279 976
2577 6991 74
2578 8311 978
2579 8967 668
2580 4616 886
2581 3525 581
2582 8602 675
2583 4583 99
2584 8306 839
2585 9361 506
2586 9411 121
2587 3835 73
2588 6823 90
2589 5860 852
2590 6302 224
2591 7804 827
2592 7388 841
2593 7465 128
2594 7211 249
2595 3078 489
2596 4624 205
2597 7677 791
2598 3513 455
2599 4985 92
2600 5700 448
2601 8125 543
2602 6036 655
2603 6164 885
2604 7697 909
2605 5920 824
2606 8011 904
2607 6229 325
2608 3625 994
2609 3261 488
2610 4601 771
2611 7622 914
2612 8417 903
2613 4230 682
2614 3392 806
2615 7747 141
2616 8806 190
2617 8903 675
2618 4348 408
2619 3374 532
2620 4097 294
2621 4254 395
2622 6132 109
2623 7986 599
2624 7226 223
2625 7701 463
2626 7779 389
2627 4975 378
2628 6087 935
2629 5685 922
2630 4321 206
2631 3081 583
2632 7115 419
2633 7859 865
2634 9183 833
2635 4050 981
2636 9426 294
2637 5486 683
2638 4036 223
2639 8201 957
2640 7576 338
2641 9070 263
2642 3014 965
2643 7073 593
2644 3120 173
2645 6476 501
2646 5573 497
2647 8121 582
2648 8321 750
2649 8894 495
2650 2717 485
2651 2747 342
2652 4635 801
2653 5313 526
2654 4482 943
2655 9370 158
2656 7830 593
2657 7616 662
2658 5017 764
2659 8483 372
2660 7935 79
2661 7759 175
2662 6201 688
2663 9176 784
2664 4085 764
2665 8619 322
2666 8592 902
2667 6340 354
2668 6134 313
2669 5309 417
2670 9337 324
2671 8169 175
2672 8786 686
2673 6633 330
2674 3824 161
2675 7038 911
2676 3259 96
2677 2899 468
2678 2894 63
2679 6157 522
2680 7633 130
2681 8605 701
2682 6397 144
2683 3961 46
2684 8041 937
2685 6209 212
2686 7820 3
2687 9062 477
2688 5265 619
2689 4555 574
2690 7954 588
2691 7672 229
2692 9444 55
2693 5201 631
2694 4747 803
2695 9027 719
2696 8121 604
2697 6153 926
2698 7907 243
2699 8447 772
2700 3951 15
2701 6181 694
2702 5857 591
2703 2875 151
2704 9205 14
2705 6410 50
2706 6709 532
2707 6069 14
2708 2819 386
2709 7854 51
2710 8323 601
2711 9187 754
2712 4191 994
2713 9160 228
2714 3576 65
2715 5793 852
2716 2961 183
2717 9099 144
2718 5353 581
2719 7759 258
2720 3877 113
2721 4722 416
2722 8247 579
2723 7830 91
2724 6705 142
2725 3415 557
2726 5202 409
2727 8858 281
2728 8310 258
2729 5845 231
2730 3111 163
2731 6422 12
2732 7518 376
2733 8173 112
2734 7312 628
2735 5963 842
2736 5141 724
2737 4262 352
2738 8534 895
2739 5446 192
2740 9203 982
2741 6502 890
2742 8470 872
2743 9200 510
2744 6757 212
2745 8950 583
2746 5044 524
2747 7952 1
2748 8293 82
2749 5883 921
2750 8983 104
2751 4142 866
2752 6305 128
2753 9113 538
2754 8365 32
2755 7341 935
2756 6054 987
2757 9464 183
2758 8101 1
2759 6322 758
2760 5842 852
2761 3779 385
2762 4429 709
2763 6175 762
2764 8169 26
2765 3024 653
2766 3838 744
2767 4370 954
2768 4323 863
2769 3786 871
2770 5699 686
2771 9136 159
2772 3866 68
2773 2996 217
2774 4694 192
2775 3018 844
2776 9102 388
2777 3570 692
2778 5513 82
2779 3862 995
2780 7684 273
2781 3691 246
2782 4718 61
2783 8178 320
2784 7101 177
2785 4697 347
2786 6893 908
2787 7005 414
2788 3429 68
2789 5606 6
2790 4765 682
2791 7596 633
2792 7235 798
2793 4074 88
2794 8755 448
2795 4774 243
2796 4160 536
2797 7883 963
2798 4473 523
2799 3961 335
2800 6581 843
2801 5517 588
2802 5382 451
2803 8372 960
2804 3494 228
2805 3403 415
2806 7874 781
2807 4778 223
2808 3795 598
2809 3939 495
2810 6677 169
2811 4734 929
2812 6169 539
2813 6285 835
2814 4430 349
2815 4246 653
2816 6866 866
2817 8523 807
2818 8270 742
2819 3504 281
2820 7347 21
2821 7408 873
2822 9431 670
2823 5398 217
2824 4373 154
2825 4787 123
2826 4317 381
2827 6390 823
2828 8963 657
2829 4816 393
2830 6498 77
2831 5075 100
2832 7140 154
2833 6045 644
2834 5537 103
2835 6737 68
2836 6635 373
2837 5178 985
2838 3426 912
2839 3060 166
2840 8362 314
2841 9307 353
2842 7162 828
2843 8884 543
2844 4702 765
2845 8989 231
2846 2923 753
2847 7727 8
2848 6623 871
2849 4639 164
2850 5754 584
2851 9065 634
2852 5017 204
2853 7890 972
2854 5109 243
2855 9262 452
2856 7815 814
2857 5150 608
2858 4060 653
2859 8417 212
2860 8614 400
2861 8481 400
2862 4292 10
2863 7964 959
2864 3048 820
2865 6977 157
2866 4656 81
2867 7054 315
2868 4261 913
2869 5924 350
2870 7884 989
2871 4518 571
2872 4793 73
2873 6417 426
2874 8352 519
2875 6730 433
2876 8169 878
2877 5994 284
2878 3221 799
2879 6646 635
2880 6721 190
2881 7853 100
2882 4204 675
2883 4071 298
2884 8120 22
2885 9107 624
2886 8735 914
2887 5876 552
2888 7541 999
2889 8361 929
2890 5528 134
2891 5706 147
2892 7724 998
2893 7211 624
2894 5770 79
2895 5818 720
2896 4595 509
2897 6752 662
2898 5014 216
2899 8244 181
2900 8523 192
2901 7616 529
2902 8777 498
2903 4005 733
2904 5403 127
2905 9415 610
2906 5019 672
2907 9347 962
2908 6666 160
2909 7965 985
2910 7682 421
2911 5741 457
2912 7872 793
2913 9281 328
2914 6760 246
2915 9061 615
2916 7459 486
2917 7258 584
2918 6387 731
2919 9250 865
2920 7999 410
2921 3321 917
2922 8380 820
2923 9244 24
2924 4862 846
2925 7693 179
2926 6569 21
2927 7082 17
2928 7168 429
2929 6363 11
2930 6669 866
2931 6159 77
2932 3766 607
2933 7818 300
2934 8040 736
2935 3656 514
2936 9108 58
2937 5775 919
2938 3605 844
2939 7601 556
2940 7093 886
2941 8819 574
2942 4433 239
2943 7316 609
2944 8090 849
2945 8218 838
2946 3116 559
2947 8147 598
2948 8079 444
2949 6322 165
2950 8399 432
2951 8887 991
2952 6545 609
2953 4136 459
2954 9275 743
2955 7177 311
2956 6270 585
2957 3567 629
2958 3081 678
2959 8365 539
2960 5680 600
2961 5159 483
2962 8910 368
2963 5970 196
2964 8063 487
2965 3931 888
2966 4129 669
2967 9251 266
2968 5781 341
2969 7861 736
2970 8821 241
2971 5134 35
2972 8934 65
2973 8544 909
2974 4413 12
2975 3699 532
2976 3565 539
2977 5199 281
2978 5863 242
2979 6219 670
2980 7486 96
2981 5598 487
2982 5032 732
2983 7697 239
2984 4275 625
2985 9076 922
2986 7811 449
2987 8788 601
2988 8681 68
2989 7438 884
2990 6080 941
2991 7578 764
2992 4373 216
2993 9208 404
2994 5335 982
2995 9018 897
2996 7173 619
2997 3491 434
2998 4454 674
2999 8649 868
3000 3657 943
3001 5910 471
3002 5434 867
3003 8924 783
3004 3592 445
3005 5427 463
3006 7464 671
3007 6595 291
3008 8489 219
3009 5802 105
3010 3745 268
3011 4671 91
3012 8778 431
3013 5159 82
3014 5071 788
3015 4360 400
3016 6599 319
3017 3939 598
3018 3149 121
3019 4195 617
3020 3983 424
3021 6154 986
3022 4302 340
3023 5006 598
3024 4933 116
3025 7089 946
3026 7977 183
3027 6856 440
3028 8741 850
3029 7223 367
3030 3629 299
3031 6162 67
3032 8396 478
3033 7422 449
3034 9247 900
3035 3986 975
3036 8001 247
3037 3626 269
3038 4668 106
3039 6382 823
3040 5340 304
3041 4120 156
3042 5866 142
3043 6353 765
3044 7341 174
3045 8262 717
3046 5013 51
3047 4136 725
3048 3082 511
3049 4203 287
3050 9240 88
3051 7068 193
3052 8387 284
3053 3088 299
3054 3432 627
3055 7742 419
3056 9020 998
3057 4095 918
3058 6329 461
3059 5721 102
3060 6032 152
3061 7181 88
3062 5286 469
3063 8148 632
3064 7888 434
3065 7000 200
3066 4988 125
3067 5558 809
3068 6809 171
3069 4447 414
3070 8816 10
3071 4817 528
3072 8165 730
3073 5460 231
3074 7059 713
3075 7560 433
3076 5879 125
3077 7364 233
3078 8876 869
3079 7550 585
3080 7601 456
3081 8478 287
3082 3348 980
3083 4045 559
3084 3218 744
3085 6336 625
3086 8758 74
3087 6657 711
3088 6976 779
3089 6358 91
3090 5798 60
3091 7408 704
3092 5197 990
3093 7154 839
3094 3999 564
3095 8719 545
3096 8013 464
3097 7391 556
3098 4967 795
3099 6048 798
3100 3189 95
3101 3865 87
3102 6891 813
3103 4389 188
3104 7235 264
3105 4418 568
3106 8767 673
3107 6728 114
3108 7663 178
3109 7885 103
3110 9042 766
3111 4163 277
3112 4525 235
3113 9448 65
3114 5971 444
3115 6453 904
3116 6161 119
3117 4419 566
3118 6248 41
3119 3454 947
3120 5438 921
3121 5517 179
3122 7397 566
3123 7271 947
3124 6596 890
3125 6588 136
3126 3590 41
3127 7301 353
3128 3270 357
3129 7449 744
3130 9387 979
3131 6197 500
3132 4386 160
3133 9402 911
3134 5220 153
3135 9439 107
3136 5435 595
3137 4878 419
3138 3373 504
3139 9346 915
3140 8294 902
3141 4835 171
3142 4568 131
3143 8713 904
3144 4915 790
3145 4189 284
3146 5189 168
3147 5698 496
3148 3796 983
3149 4624 577
3150 5781 377
3151 5442 498
3152 5045 718
3153 4583 73
3154 8270 122
3155 4262 480
3156 4706 4
3157 4086 762
3158 5249 719
3159 5838 831
3160 4501 94
3161 7185 849
3162 4589 564
3163 4305 379
3164 8381 1000
3165 7634 509
3166 8966 287
3167 8800 184
3168 4179 578
3169 5929 279
3170 5634 999
3171 8900 978
3172 5244 129
3173 6169 268
3174 4476 231
3175 5746 265
3176 4819 88
3177 7816 531
3178 8783 100
3179 3748 895
3180 4282 774
3181 3845 995
3182 6021 991
3183 4775 532
3184 6600 423
3185 8499 397
3186 6246 439
3187 5195 208
3188 8803 609
3189 8715 117
3190 5124 335
3191 7743 81
3192 4882 94
3193 8688 433
3194 8999 978
3195 8187 264
3196 4658 650
3197 8321 799
3198 7532 824
3199 8046 896
3200 3403 688
3201 3686 212
3202 3714 616
3203 3668 905
3204 5448 454
3205 7160 6
3206 5362 727
3207 8588 356
3208 6754 439
3209 4710 62
3210 6691 951
3211 5025 902
3212 9174 421
3213 6435 883
3214 5572 809
3215 8614 582
3216 4555 110
3217 4309 940
3218 5720 575
3219 5271 243
3220 8262 393
3221 4447 446
3222 8216 318
3223 8886 650
3224 8021 684
3225 9385 194
3226 8074 663
3227 5753 305
3228 7890 230
3229 8847 370
3230 8430 4
3231 8214 361
3232 9413 100
3233 7146 730
3234 4156 251
3235 7321 111
3236 7275 369
3237 5910 501
3238 3920 610
3239 8354 524
3240 6203 951
3241 8790 887
3242 4668 974
3243 9282 950
3244 8243 53
3245 9321 312
3246 8171 579
3247 6139 719
3248 3815 575
3249 9383 574
3250 5713 545
3251 6504 79
3252 8022 860
3253 7872 454
3254 9244 192
3255 3412 53
3256 9136 913
3257 7109 706
3258 7984 392
3259 8219 719
3260 9088 701
3261 6489 433
3262 9334 392
3263 7200 993
3264 7586 683
3265 3560 683
3266 8415 877
3267 5456 610
3268 7015 819
3269 3896 856
3270 6045 764
3271 8150 555
3272 6707 724
3273 7795 693
3274 8643 724
3275 3885 845
3276 6391 186
3277 4016 82
3278 4709 137
3279 7950 450
3280 5430 209
3281 6065 221
3282 7876 616
3283 9118 517
3284 9050 181
3285 6360 612
3286 7292 256
3287 6602 537
3288 4155 135
3289 9045 62
3290 8603 624
3291 4936 282
3292 8276 968
3293 7657 736
3294 8214 667
3295 3995 4
3296 5663 544
3297 6798 574
3298 7813 817
3299 4349 490
3300 6745 188
3301 4076 522
3302 7003 32
3303 6599 579
3304 6929 413
3305 4757 865
3306 7551 81
3307 7658 467
3308 9325 698
3309 5996 899
3310 8218 538
3311 8595 190
3312 4366 574
3313 5690 320
3314 4800 29
3315 7627 1000
3316 8393 537
3317 6715 327
3318 5103 245
3319 5067 298
3320 7638 403
3321 5897 283
3322 3718 420
3323 3467 586
3324 7276 530
3325 6959 594
3326 5416 509
3327 5580 344
3328 6620 756
3329 5787 559
3330 3946 369
3331 4934 682
3332 3788 946
3333 4289 489
3334 4192 440
3335 7343 200
3336 7869 287
3337 7410 685
3338 6501 925
3339 4144 278
3340 8686 752
3341 6174 820
3342 9316 452
3343 3894 854
3344 5111 996
3345 8802 218
3346 4220 69
3347 5052 262
3348 7382 622
3349 6268 135
3350 9211 566
3351 4627 185
3352 6034 646
3353 8535 330
3354 7876 143
3355 6610 790
3356 7197 589
3357 5014 313
3358 8298 445
3359 8872 134
3360 5381 158
3361 8538 971
3362 8287 768
3363 8421 709
3364 8931 206
3365 4722 25
3366 4562 107
3367 7360 465
3368 5160 182
3369 6132 255
3370 7321 449
3371 6323 987
3372 4160 322
3373 8903 472
3374 6499 968
3375 8945 786
3376 5322 504
3377 4526 78
3378 5995 311
3379 4960 203
3380 6387 631
3381 5322 624
3382 7995 290
3383 7094 753
3384 8218 506
3385 7990 816
3386 3795 876
3387 3564 74
3388 8677 762
3389 8822 36
3390 6889 464
3391 5660 15
3392 4569 983
3393 4129 349
3394 8592 964
3395 5992 614
3396 5811 607
3397 4791 606
3398 7718 727
3399 7520 482
3400 8060 385
3401 3732 312
3402 7944 127
3403 5990 767
3404 8317 488
3405 5985 184
3406 4753 752
3407 3557 187
3408 7625 582
3409 7059 517
3410 8268 71
3411 3524 963
3412 6954 794
3413 4402 46
3414 7303 696
3415 4973 50
3416 9378 180
3417 9186 186
3418 3565 723
3419 7008 922
3420 3746 707
3421 8607 366
3422 5963 579
3423 6074 900
3424 3544 984
3425 8724 743
3426 7588 660
3427 6731 946
3428 7051 990
3429 6167 540
3430 7378 386
3431 9389 640
3432 5813 833
3433 6869 490
3434 6316 215
3435 8999 445
3436 5499 24
3437 9002 736
3438 5089 685
3439 4543 848
3440 7968 325
3441 8569 960
3442 3792 639
3443 5822 208
3444 6272 156
3445 8353 533
3446 4912 50
3447 3987 117
3448 4865 86
3449 7724 292
3450 6734 306
3451 8679 715
3452 3589 195
3453 6834 349
3454 4049 722
3455 4700 199
3456 9316 556
3457 6685 606
3458 5325 615
3459 7433 201
3460 4246 67
3461 3479 991
3462 8986 421
3463 5510 562
3464 7651 29
3465 8240 485
3466 7236 15
3467 6931 648
3468 7729 792
3469 6824 237
3470 6869 293
3471 7651 351
3472 4064 233
3473 5105 521
3474 8061 128
3475 3520 986
3476 6761 799
3477 7397 303
3478 4736 393
3479 5316 766
3480 6495 730
3481 7790 772
3482 4684 563
3483 8402 729
3484 7686 843
3485 7353 813
3486 4410 343
3487 9189 78
3488 8655 26
3489 4259 57
3490 7611 417
3491 5241 563
3492 8347 194
3493 3609 931
3494 4753 7
3495 4987 166
3496 5695 742
3497 9094 594
3498 9022 271
3499 5503 604
3500 9004 655
3501 4026 459
3502 7312 934
3503 7859 56
3504 3962 728
3505 7412 992
3506 7554 798
3507 8262 421
3508 7896 157
3509 6449 676
3510 8694 790
3511 7884 4
3512 7648 305
3513 6205 429
3514 5767 271
3515 7256 251
3516 7861 806
3517 9043 958
3518 3606 742
3519 4503 205
3520 7436 292
3521 6282 891
3522 9062 118
3523 3822 513
3524 4654 744
3525 7462 774
3526 7733 308
3527 4369 197
3528 4160 508
3529 6128 405
3530 4985 268
3531 4846 694
3532 8584 144
3533 8529 602
3534 6178 210
3535 6771 614
3536 7607 13
3537 4082 486
3538 3907 489
3539 5098 633
3540 4719 469
3541 7240 866
3542 7969 411
3543 4307 889
3544 9007 706
3545 4515 63
3546 6592 198
3547 7073 661
3548 5399 998
3549 8558 779
3550 7823 703
3551 4346 119
3552 4570 263
3553 5798 185
3554 9393 406
3555 7360 253
3556 6384 829
3557 7043 291
3558 5554 876
3559 7402 112
3560 4041 124
3561 6639 241
3562 4214 875
3563 5955 838
3564 6834 301
3565 6617 273
3566 8899 499
3567 4874 335
3568 4189 172
3569 6920 515
3570 6444 425
3571 7663 381
3572 7830 170
3573 5985 757
3574 5716 104
3575 5832 412
3576 7079 404
3577 8471 588
3578 8676 384
3579 7600 911
3580 7520 165
3581 7322 521
3582 7872 882
3583 7859 625
3584 5067 135
3585 4345 535
3586 5278 365
3587 8836 590
3588 7124 916
3589 4457 632
3590 8173 527
3591 7762 637
3592 6398 188
3593 7855 820
3594 3750 502
3595 4132 713
3596 8428 791
3597 9496 809
3598 9299 927
3599 4847 948
3600 8291 799
3601 4061 998
3602 5963 803
3603 5522 842
3604 6484 953
3605 5013 389
3606 4138 171
3607 8225 401
3608 9400 654
3609 7873 676
3610 7986 323
3611 5317 398
3612 6127 201
3613 5208 917
3614 7539 170
3615 8181 562
3616 5028 126
3617 5344 61
3618 4330 338
3619 6885 244
3620 4659 842
3621 6843 178
3622 9229 458
3623 3829 461
3624 6940 652
3625 4207 964
3626 6091 237
3627 9380 29
3628 4256 869
3629 4488 481
3630 3698 859
3631 8715 27
3632 4936 594
3633 3662 126
3634 8785 562
3635 6748 625
3636 7957 398
3637 6145 207
3638 4864 53
3639 7264 382
3640 6616 27
3641 8411 454
3642 7280 285
3643 8981 174
3644 5434 811
3645 4295 263
3646 6982 955
3647 5432 775
3648 6583 444
3649 8978 577
3650 4073 210
3651 4062 603
3652 9263 879
3653 5970 619
3654 7758 331
3655 4573 333
3656 9166 23
3657 3684 250
3658 4968 117
3659 7943 30
3660 3983 395
3661 8846 682
3662 7639 808
3663 5498 384
3664 8839 194
3665 8445 32
3666 9134 670
3667 8877 149
3668 7306 452
3669 9082 250
3670 5070 833
3671 6760 504
3672 7669 502
3673 3985 620
3674 6253 782
3675 3962 433
3676 4638 242
3677 6998 60
3678 5064 605
3679 4478 351
3680 5560 28
3681 7584 800
3682 7537 588
3683 5997 797
3684 4773 283
3685 9320 942
3686 8915 162
3687 7113 878
3688 9170 208
3689 7706 819
3690 8624 210
3691 7809 194
3692 7502 285
3693 8745 785
3694 7210 364
3695 5786 936
3696 4816 101
3697 9392 491
3698 4096 247
3699 9187 914
3700 5303 586
3701 9266 883
3702 4684 179
3703 7099 767
3704 9429 723
3705 6609 875
3706 8653 796
3707 7632 965
3708 6319 479
3709 7866 159
3710 5988 842
3711 6885 500
3712 6241 884
3713 8218 355
3714 8666 573
3715 8908 893
3716 8069 822
3717 7818 650
3718 6359 254
3719 6744 926
3720 7700 641
3721 4298 741
3722 8715 100
3723 4851 808
3724 7922 595
3725 6709 957
3726 7681 298
3727 3739 338
3728 7129 819
3729 8829 397
3730 6198 912
3731 5116 753
3732 7579 830
3733 5936 328
3734 7573 602
3735 9245 845
3736 5620 259
3737 4974 727
3738 5445 97
3739 8108 87
3740 7253 166
3741 7162 986
3742 4858 700
3743 6023 433
3744 7707 118
3745 8079 411
3746 4652 726
3747 6732 974
3748 5796 834
3749 7616 954
3750 4366 147
3751 4184 868
3752 6233 7
3753 7540 773
3754 9004 303
3755 6868 286
3756 7459 622
3757 5478 443
3758 8017 720
3759 4477 960
3760 5191 869
3761 7176 97
3762 4967 281
3763 7828 743
3764 7949 342
3765 7307 903
3766 8759 422
3767 4967 159
3768 7965 811
3769 5303 494
3770 6243 474
3771 7517 994
3772 6780 936
3773 5451 676
3774 4648 531
3775 4614 796
3776 6312 931
3777 4132 189
3778 5556 876
3779 5703 597
3780 9266 866
3781 7169 493
3782 6502 763
3783 5550 440
3784 4880 117
3785 8964 730
3786 8767 176
3787 5525 654
3788 6460 829
3789 5133 197
3790 5178 668
3791 5527 971
3792 6978 141
3793 8253 117
3794 6372 214
3795 4910 965
3796 8036 595
3797 4663 512
3798 4975 947
3799 4985 806
3800 6876 993
3801 4446 325
3802 8473 897
3803 5428 210
3804 8391 980
3805 6022 671
3806 6577 557
3807 6454 646
3808 6952 519
3809 8636 341
3810 9427 93
3811 9216 541
3812 8010 43
3813 5363 510
3814 6692 329
3815 6170 531
3816 9130 467
3817 6072 263
3818 6040 422
3819 7244 906
3820 8703 527
3821 5253 766
3822 5764 515
3823 8028 382
3824 6860 31
3825 8407 524
3826 9474 122
3827 6344 16
3828 5775 102
3829 7438 83
3830 8777 528
3831 6377 46
3832 8285 461
3833 8035 377
3834 8910 899
3835 5703 374
3836 8116 745
3837 6808 517
3838 4338 108
3839 5684 268
3840 7587 700
3841 6087 548
3842 8967 560
3843 4256 313
3844 7006 239
3845 4561 332
3846 9174 777
3847 4524 716
3848 8256 687
3849 6764 230
3850 6112 352
3851 6422 278
3852 4756 593
3853 4503 164
3854 4302 403
3855 5501 987
3856 8451 159
3857 8826 161
3858 8796 561
3859 8988 822
3860 3976 330
3861 4432 478
3862 6393 297
3863 5301 65
3864 9178 336
3865 6885 97
3866 4802 694
3867 7178 391
3868 8834 727
3869 6052 182
3870 5395 539
3871 5058 330
3872 5272 993
3873 7898 805
3874 5730 417
3875 6682 928
3876 4547 324
3877 5109 844
3878 8980 733
3879 8861 254
3880 7497 947
3881 7996 340
3882 4378 863
3883 7737 673
3884 5080 601
3885 3921 732
3886 8693 979
3887 4222 401
3888 5386 627
3889 4961 884
3890 4909 699
3891 7994 387
3892 9188 334
3893 6361 678
3894 5511 577
3895 7682 896
3896 8511 423
3897 7948 54
3898 6897 64
3899 6868 14
3900 9215 605
3901 6739 340
3902 7956 14
3903 6379 406
3904 8214 634
3905 6468 234
3906 5084 706
3907 8237 970
3908 6075 74
3909 8688 631
3910 7999 62
3911 8824 138
3912 6079 64
3913 3941 802
3914 8438 243
3915 6470 758
3916 7737 643
3917 5625 854
3918 9118 861
3919 8907 466
3920 6351 951
3921 9046 523
3922 4587 411
3923 4936 620
3924 5227 241
3925 7467 265
3926 4208 242
3927 8803 711
3928 8028 778
3929 8097 189
3930 8728 715
3931 9042 492
3932 8631 162
3933 8348 741
3934 5076 370
3935 5540 211
3936 7020 788
3937 9084 787
3938 4293 579
3939 6439 627
3940 6174 905
3941 7832 811
3942 7419 258
3943 7884 648
3944 7474 787
3945 4036 767
3946 4565 629
3947 9293 497
3948 9134 317
3949 7707 211
3950 4313 409
3951 5976 460
3952 7675 606
3953 6420 482
3954 6309 741
3955 6616 872
3956 4141 849
3957 8152 339
3958 9275 508
3959 7014 203
3960 4708 713
3961 7895 418
3962 8503 278
3963 4796 919
3964 4912 779
3965 8992 918
3966 8756 166
3967 8503 213
3968 8561 945
3969 6498 542
3970 7489 645
3971 6520 284
3972 8738 320
3973 8076 395
3974 8621 633
3975 4067 512
3976 5481 207
3977 9178 697
3978 8357 735
3979 5659 224
3980 5075 799
3981 5861 876
3982 5392 689
3983 5319 598
3984 5872 714
3985 5958 89
3986 4565 832
3987 4006 145
3988 4030 512
3989 9314 697
3990 7962 478
3991 9404 852
3992 7189 20
3993 7106 937
3994 4369 593
3995 6065 951
3996 7365 771
3997 4870 857
3998 7871 89
3999 4486 258
4000 4182 863
4001 7115 177
4002 7454 901
4003 6531 20
4004 5901 728
4005 4816 418
4006 7416 683
4007 4264 679
4008 8392 941
4009 9477 247
4010 8103 280
4011 7175 467
4012 8866 731
4013 9120 122
4014 6590 367
4015 8714 307
4016 4717 13
4017 7679 964
4018 4486 851
4019 6104 157
4020 6592 869
4021 4116 777
4022 5700 432
4023 6536 313
4024 4182 38
4025 7216 600
4026 8527 696
4027 4057 88
4028 6858 332
4029 4852 268
4030 7382 395
4031 7865 96
4032 7132 800
4033 4254 375
4034 6345 637
4035 8982 840
4036 9131 562
4037 4486 752
4038 8696 367
4039 7563 625
4040 7899 567
4041 4087 592
4042 9152 129
4043 8778 252
4044 6365 593
4045 8387 704
4046 5222 521
4047 7103 794
4048 5551 124
4049 9364 884
4050 7080 313
4051 6654 378
4052 6323 694
4053 8135 957
4054 6431 23
4055 7862 115
4056 8834 75
4057 6661 242
4058 8931 324
4059 7551 58
4060 5111 956
4061 8188 745
4062 6530 547
4063 7936 100
4064 4894 213
4065 4544 872
4066 6234 675
4067 7768 352
4068 6021 749
4069 6994 73
4070 9191 893
4071 6502 175
4072 7112 263
4073 5157 722
4074 7858 217
4075 6063 957
4076 8492 562
4077 5764 873
4078 8922 155
4079 9154 360
4080 4113 122
4081 7841 538
4082 6479 511
4083 6523 353
4084 6745 270
4085 4153 316
4086 5064 105
4087 6207 209
4088 8409 727
4089 5470 147
4090 9201 586
4091 5088 915
4092 6869 343
4093 5670 799
4094 4549 907
4095 4607 686
4096 8303 71
4097 8809 30
4098 8248 361
4099 6646 983
4100 5527 883
4101 6244 588
4102 5875 851
4103 9046 382
4104 7020 85
4105 8243 496
4106 8883 743
4107 7451 637
4108 6026 368
4109 8643 174
4110 4780 533
4111 6834 385
4112 7489 503
4113 5563 117
4114 4657 132
4115 7819 23
4116 5692 340
4117 4716 515
4118 4309 434
4119 4354 491
4120 8998 944
4121 4937 986
4122 5775 412
4123 4277 108
4124 8149 378
4125 5611 660
4126 6592 940
4127 4367 330
4128 8555 756
4129 4744 537
4130 8316 227
4131 4389 362
4132 8342 429
4133 4848 430
4134 6653 437
4135 6176 669
4136 7952 127
4137 6516 463
4138 8616 536
4139 8788 802
4140 6424 893
4141 4913 294
4142 4931 157
4143 9244 366
4144 5492 709
4145 4340 246
4146 5998 404
4147 5241 851
4148 6222 565
4149 5091 308
4150 5926 209
4151 7709 216
4152 6695 577
4153 6905 35
4154 7164 853
4155 8913 764
4156 4793 357
4157 7423 633
4158 7578 847
4159 8910 519
4160 9055 276
4161 9231 252
4162 4447 415
4163 7408 751
4164 4194 957
4165 7970 49
4166 8369 28
4167 5890 613
4168 8449 51
4169 7509 483
4170 5013 605
4171 5495 566
4172 5490 203
4173 8639 648
4174 9170 424
4175 9169 765
4176 5968 891
4177 8408 63
4178 6576 696
4179 6639 947
4180 8374 797
4181 7243 507
4182 4654 901
4183 8092 479
4184 6451 212
4185 6087 320
4186 8745 832
4187 5065 974
4188 8067 122
4189 5965 589
4190 8610 930
4191 9471 697
4192 6449 46
4193 5975 514
4194 6136 572
4195 4797 879
4196 4862 511
4197 6161 783
4198 7983 265
4199 5602 983
4200 5837 339
4201 7537 558
4202 5909 772
4203 7887 477
4204 9080 355
4205 5236 988
4206 6194 79
4207 7840 657
4208 6516 94
4209 9047 741
4210 6076 388
4211 9379 281
4212 7264 499
4213 9430 642
4214 7893 720
4215 5786 689
4216 8584 987
4217 5033 626
4218 5889 405
4219 5520 437
4220 6833 743
4221 5151 965
4222 9153 387
4223 6864 210
4224 4701 246
4225 6754 792
4226 7845 681
4227 9072 455
4228 9164 783
4229 7799 190
4230 8967 753
4231 4847 185
4232 6805 402
4233 6126 866
4234 8607 194
4235 7074 669
4236 9303 707
4237 5271 803
4238 4398 539
4239 4934 533
4240 8774 178
4241 6471 463
4242 6309 312
4243 9142 929
4244 6604 659
4245 7028 539
4246 5087 153
4247 5521 346
4248 6338 127
4249 9449 538
4250 9269 821
4251 6919 401
4252 7393 877
4253 5253 110
4254 8726 64
4255 5133 749
4256 7137 425
4257 7292 518
4258 7598 908
4259 6850 512
4260 8369 39
4261 7280 460
4262 8992 798
4263 9156 689
4264 6557 815
4265 5257 937
4266 8974 492
4267 4412 579
4268 5101 373
4269 6970 169
4270 7528 927
4271 5939 35
4272 6776 265
4273 5168 710
4274 5814 502
4275 8448 401
4276 7734 542
4277 4865 546
4278 4676 703
4279 9170 907
4280 9208 880
4281 5370 501
4282 4586 86
4283 4574 351
4284 8481 560
4285 6742 952
4286 7534 887
4287 5599 8
4288 4496 306
4289 9039 870
4290 8955 928
4291 7149 680
4292 5572 920
4293 7726 90
4294 7522 957
4295 9431 695
4296 8448 920
4297 7527 160
4298 9225 325
4299 7168 34
4300 8575 851
4301 7269 114
4302 4798 432
4303 8413 388
4304 4493 747
4305 9473 731
4306 9365 293
4307 6999 458
4308 6418 710
4309 8307 326
4310 7877 968
4311 8854 111
4312 4712 808
4313 7364 826
4314 5591 689
4315 7812 57
4316 7891 435
4317 7456 828
4318 8771 97
4319 8239 950
4320 6516 820
4321 4535 303
4322 5982 145
4323 9296 29
4324 8722 431
4325 4616 398
4326 6861 214
4327 4978 269
4328 6979 428
4329 4709 350
4330 6426 363
4331 5768 644
4332 4843 559
4333 6612 169
4334 7957 508
4335 6058 211
4336 9235 925
4337 6958 884
4338 8827 698
4339 6355 842
4340 8942 216
4341 6076 617
4342 8587 427
4343 8177 80
4344 7782 548
4345 6168 773
4346 7544 197
4347 7091 377
4348 5270 467
4349 8726 976
4350 5171 872
4351 8856 569
4352 9002 763
4353 7702 828
4354 8782 730
4355 6013 652
4356 5695 726
4357 6629 35
4358 4881 924
4359 7550 772
4360 8642 690
4361 5201 697
4362 8248 456
4363 5977 598
4364 9488 320
4365 7641 548
4366 8515 900
4367 5690 6
4368 7094 850
4369 7637 31
4370 7791 364
4371 9369 820
4372 5848 935
4373 6582 418
4374 6015 666
4375 6041 373
4376 8764 178
4377 6094 642
4378 4600 380
4379 7577 899
4380 6555 284
4381 7385 886
4382 8592 9
4383 8191 711
4384 5666 79
4385 9445 372
4386 4850 535
4387 7939 715
4388 4956 966
4389 5262 462
4390 6272 73
4391 6385 255
4392 9050 840
4393 9166 588
4394 9317 87
4395 9385 170
4396 4711 1
4397 5437 312
4398 7738 369
4399 7428 964
4400 7319 823
4401 7881 329
4402 5768 614
4403 4872 332
4404 4826 337
4405 6828 791
4406 4906 482
4407 8822 738
4408 7446 305
4409 5752 954
4410 5026 361
4411 5186 800
4412 4418 360
4413 5959 230
4414 7674 851
4415 6598 875
4416 7673 230
4417 9381 813
4418 5124 202
4419 9345 76
4420 7791 49
4421 4514 139
4422 7154 797
4423 8522 331
4424 8438 379
4425 6755 387
4426 6390 593
4427 5439 957
4428 7380 212
4429 8835 825
4430 6190 234
4431 6264 233
4432 9180 754
4433 7141 262
4434 8835 909
4435 7831 253
4436 9237 992
4437 9317 534
4438 5595 544
4439 7127 333
4440 5474 662
4441 7599 454
4442 5488 465
4443 9464 224
4444 6454 726
4445 4694 793
4446 8476 455
4447 9068 548
4448 9090 683
4449 7232 111
4450 9054 22
4451 5255 8
4452 9355 449
4453 5736 231
4454 7276 623
4455 5317 156
4456 6550 507
4457 5959 574
4458 8495 746
4459 6340 345
4460 4625 503
4461 9163 363
4462 4678 713
4463 6671 97
4464 7324 782
4465 6951 41
4466 6157 70
4467 7027 366
4468 8331 487
4469 7239 931
4470 5626 702
4471 6624 562
4472 6691 908
4473 6708 894
4474 7862 479
4475 5274 732
4476 9410 641
4477 8170 591
4478 6212 604
4479 4845 570
4480 5511 185
4481 9061 21
4482 4530 101
4483 4640 757
4484 9285 716
4485 6905 878
4486 7499 543
4487 5242 461
4488 7943 504
4489 6471 959
4490 8541 362
4491 9306 150
4492 7786 1000
4493 9172 308
4494 5096 591
4495 8233 804
4496 9408 935
4497 8051 724
4498 4595 776
4499 7344 345
4500 9152 692
4501 8302 371
4502 9088 37
4503 6737 708
4504 4907 997
4505 9316 582
4506 8725 257
4507 9082 385
4508 9044 238
4509 8491 171
4510 7673 656
4511 5974 583
4512 7310 398
4513 9286 267
4514 7014 936
4515 5410 502
4516 7689 397
4517 9232 466
4518 5787 308
4519 8298 425
4520 9434 654
4521 8520 260
4522 7103 696
4523 7166 584
4524 6159 858
4525 9119 772
4526 9452 331
4527 6781 59
4528 8297 100
4529 6232 515
4530 7795 53
4531 5971 816
4532 9465 856
4533 8980 680
4534 8090 706
4535 8858 695
4536 7883 577
4537 5189 774
4538 9418 300
4539 7565 354
4540 5227 294
4541 6978 882
4542 6943 182
4543 6380 919
4544 8250 153
4545 8479 304
4546 6389 551
4547 4855 244
4548 5313 91
4549 5244 416
4550 7996 786
4551 6535 74
4552 6487 105
4553 7579 956
4554 6599 354
4555 8508 861
4556 8695 497
4557 6743 807
4558 9150 458
4559 5447 710
4560 8736 468
4561 6017 362
4562 6569 701
4563 9084 478
4564 7383 650
4565 5606 475
4566 6583 426
4567 6005 717
4568 9487 763
4569 7867 781
4570 7791 824
4571 9033 44
4572 7517 958
4573 7474 108
4574 4697 565
4575 5537 81
4576 4679 736
4577 4837 265
4578 7734 874
4579 5434 292
4580 9355 535
4581 7557 982
4582 7487 838
4583 9466 218
4584 5349 810
4585 8475 12
4586 9074 534
4587 5286 488
4588 7827 973
4589 8019 136
4590 7453 393
4591 7872 523
4592 5845 224
4593 7810 895
4594 8860 360
4595 8238 35
4596 5203 528
4597 4992 384
4598 7712 186
4599 7178 806
4600 7837 771
4601 8132 933
4602 6455 710
4603 7238 112
4604 8236 401
4605 8842 701
4606 6182 917
4607 7062 244
4608 7369 828
4609 6713 782
4610 8330 875
4611 8857 867
4612 6494 554
4613 4693 863
4614 9031 276
4615 7875 468
4616 6174 750
4617 8257 219
4618 6585 591
4619 8083 103
4620 8370 974
4621 7011 692
4622 8565 317
4623 9049 929
4624 8528 936
4625 8171 624
4626 5002 228
4627 6478 171
4628 6367 206
4629 9048 874
4630 7910 139
4631 8020 456
4632 9060 391
4633 7900 897
4634 6554 897
4635 6922 916
4636 9476 812
4637 7690 397
4638 5491 132
4639 9281 211
4640 8275 109
4641 5811 129
4642 8165 71
4643 6463 500
4644 7365 724
4645 6757 44
4646 5279 911
4647 8246 85
4648 6854 185
4649 7949 202
4650 7215 742
4651 5856 974
4652 8442 29
4653 9420 362
4654 7241 883
4655 7250 68
4656 4681 499
4657 7786 461
4658 6324 104
4659 9118 737
4660 6225 938
4661 9317 937
4662 5426 995
4663 7931 90
4664 9085 437
4665 9096 457
4666 8730 786
4667 8661 887
4668 5417 328
4669 6834 922
4670 7991 545
4671 7840 524
4672 9483 510
4673 9006 720
4674 5911 99
4675 7044 801
4676 5931 907
4677 8334 162
4678 5162 329
4679 7757 966
4680 9438 21
4681 7419 179
4682 9371 717
4683 5859 603
4684 5492 858
4685 7902 40
4686 6147 656
4687 4738 562
4688 8507 651
4689 7761 706
4690 9016 422
4691 9090 37
4692 8510 953
4693 6179 779
4694 8081 323
4695 5619 925
4696 7819 972
4697 6914 392
4698 5989 226
4699 7223 545
4700 6184 301
4701 4823 278
4702 9335 84
4703 9208 812
4704 9056 973
4705 6934 265
4706 4957 270
4707 5023 779
4708 9372 719
4709 7641 434
4710 8103 99
4711 8006 469
4712 6415 706
4713 4970 943
4714 7918 822
4715 4813 672
4716 7125 790
4717 6573 165
4718 9229 672
4719 8307 691
4720 5017 899
4721 8768 954
4722 5770 427
4723 5403 659
4724 5348 345
4725 8489 516
4726 8548 78
4727 9209 922
4728 8623 293
4729 5687 685
4730 9312 982
4731 6430 758
4732 5957 41
4733 7037 641
4734 8450 34
4735 7004 880
4736 4950 666
4737 8194 216
4738 5337 227
4739 8798 687
4740 6046 432
4741 9215 475
4742 5793 186
4743 5342 698
4744 7936 850
4745 8961 823
4746 8579 781
4747 9393 234
4748 5755 107
4749 4820 295
4750 5404 653
4751 6986 319
4752 8469 437
4753 8039 116
4754 7867 14
4755 7480 966
4756 4768 714
4757 6730 642
4758 5072 268
4759 8178 706
4760 7414 553
4761 7050 351
4762 5481 780
4763 8643 723
4764 5153 401
4765 5059 336
4766 9472 854
4767 7435 551
4768 6922 65
4769 9466 781
4770 5226 27
4771 7879 479
4772 7693 605
4773 8015 372
4774 6158 932
4775 9201 724
4776 8517 929
4777 5828 590
4778 8096 173
4779 5674 455
4780 7443 237
4781 9118 443
4782 7754 450
4783 5264 787
4784 9212 519
4785 6933 966
4786 5806 960
4787 8708 737
4788 6470 283
4789 7921 124
4790 5881 344
4791 9337 39
4792 8338 98
4793 8406 536
4794 5047 632
4795 7287 372
4796 7720 904
4797 5192 182
4798 6003 926
4799 5718 282
4800 9203 635
4801 6255 150
4802 6159 903
4803 9001 129
4804 5978 90
4805 8454 955
4806 7060 189
4807 6965 974
4808 9337 114
4809 5692 92
4810 8879 619
4811 8202 985
4812 5922 705
4813 6620 790
4814 9322 491
4815 4986 299
4816 7542 361
4817 8226 367
4818 8283 950
4819 5072 651
4820 5990 441
4821 7181 79
4822 8355 717
4823 9214 901
4824 7466 543
4825 6008 864
4826 8458 238
4827 9059 35
4828 8625 353
4829 5627 998
4830 6414 183
4831 4948 815
4832 6063 992
4833 8786 987
4834 6119 851
4835 6429 804
4836 5396 500
4837 5361 837
4838 7060 325
4839 7459 171
4840 7888 720
4841 4915 505
4842 4987 553
4843 6192 372
4844 5441 179
4845 5476 448
4846 5579 976
4847 7909 502
4848 5296 955
4849 9082 237
4850 6597 424
4851 5430 201
4852 5955 914
4853 5795 803
4854 6530 280
4855 7940 80
4856 7553 516
4857 9056 127
4858 5316 533
4859 8542 112
4860 7385 741
4861 6760 400
4862 8107 626
4863 6522 86
4864 8243 264
4865 5266 472
4866 6949 248
4867 8556 811
4868 7406 337
4869 6688 177
4870 7845 158
4871 5699 645
4872 5229 166
4873 5931 461
4874 5586 990
4875 9180 838
4876 7892 890
4877 8908 777
4878 7050 33
4879 5071 794
4880 8533 348
4881 6205 347
4882 7859 37
4883 5309 47
4884 7176 843
4885 6328 151
4886 5199 867
4887 6505 769
4888 6683 795
4889 8610 48
4890 9095 58
4891 9496 388
4892 6167 462
4893 7998 243
4894 8539 523
4895 9088 893
4896 5946 928
4897 8827 380
4898 5437 551
4899 5876 64
4900 6444 776
4901 9444 47
4902 5064 243
4903 6731 2
4904 5530 718
4905 6459 516
4906 7995 778
4907 5795 72
4908 5769 684
4909 7230 546
4910 7499 76
4911 7712 667
4912 6432 848
4913 4982 315
4914 7078 571
4915 7493 478
4916 5521 617
4917 4961 488
4918 5073 778
4919 8450 507
4920 7180 386
4921 9075 385
4922 9112 189
4923 7822 998
4924 6173 408
4925 8300 448
4926 7988 139
4927 5614 155
4928 8670 827
4929 7602 271
4930 7125 470
4931 7465 982
4932 5208 42
4933 7490 804
4934 8356 642
4935 6011 166
4936 6367 202
4937 8649 574
4938 6206 701
4939 7831 608
4940 6925 436
4941 5004 482
4942 4990 44
4943 7669 207
4944 7901 278
4945 6103 455
4946 6656 29
4947 8590 895
4948 6885 349
4949 7044 150
4950 8020 870
4951 5776 368
4952 5674 302
4953 5621 38
4954 5247 759
4955 7616 400
4956 7238 532
4957 5799 414
4958 9357 425
4959 6593 305
4960 5147 979
4961 7744 136
4962 9436 801
4963 8787 315
4964 7261 301
4965 6787 123
4966 8830 361
4967 6881 44
4968 4983 874
4969 6023 121
4970 8053 603
4971 4990 581
4972 7147 898
4973 7688 103
4974 6600 884
4975 5910 335
4976 7800 98
4977 8407 908
4978 8386 377
4979 8998 707
4980 7203 475
4981 7321 349
4982 5616 264
4983 7567 170
4984 8846 714
4985 7027 765
4986 9305 190
4987 9119 517
4988 8923 71
4989 8459 523
4990 8877 532
4991 5178 596
4992 8039 436
4993 5389 712
4994 8221 396
4995 8357 178
4996 5177 947
4997 5928 589
4998 8265 677
4999 8797 846
5000 6464 921
5001 6993 460
5002 8331 24
5003 9448 921
5004 5694 48
5005 7030 586
5006 8205 320
5007 9074 449
5008 8563 117
5009 7042 578
5010 6247 481
5011 5601 349
5012 7521 887
5013 5663 45
5014 8148 250
5015 8789 744
5016 6919 773
5017 6814 765
5018 6405 694
5019 5462 58
5020 6794 546
5021 7495 833
5022 6102 217
5023 7395 52
5024 7873 277
5025 8405 522
5026 8167 575
5027 9474 747
5028 7481 529
5029 8221 477
5030 5226 922
5031 7292 500
5032 7814 548
5033 5550 452
5034 7945 141
5035 7093 949
5036 8323 944
5037 7163 243
5038 7946 121
5039 7328 824
5040 6820 57
5041 5759 763
5042 7533 423
5043 6156 524
5044 7270 150
5045 7253 109
5046 6317 838
5047 7644 258
5048 5904 157
5049 7332 529
5050 6124 439
5051 6323 281
5052 5194 904
5053 7748 39
5054 6528 238
5055 8968 938
5056 7134 449
5057 5792 735
5058 6844 384
5059 7310 748
5060 7975 877
5061 5086 197
5062 9295 460
5063 7434 86
5064 6345 88
5065 8911 780
5066 9122 23
5067 7121 87
5068 5448 793
5069 5189 671
5070 6141 963
5071 7590 387
5072 7502 653
5073 7861 823
5074 5661 734
5075 6869 606
5076 9289 14
5077 7960 624
5078 5670 168
5079 7740 523
5080 5610 992
5081 7018 813
5082 5989 218
5083 7501 1
5084 8797 527
5085 6064 135
5086 8160 499
5087 5640 936
5088 8733 416
5089 7327 826
5090 9242 670
5091 8431 310
5092 8221 399
5093 5393 350
5094 8340 232
5095 7574 500
5096 6137 402
5097 8143 123
5098 8866 445
5099 5587 582
5100 5933 414
5101 5456 921
5102 8957 198
5103 7454 475
5104 7129 741
5105 5279 810
5106 6091 144
5107 7910 527
5108 8502 510
5109 8464 520
5110 6041 86
5111 6968 991
5112 5644 589
5113 5647 472
5114 6003 351
5115 5223 115
5116 9327 848
5117 9490 630
5118 7916 888
5119 6267 868
5120 5302 309
5121 7773 303
5122 6997 944
5123 6058 976
5124 6974 369
5125 5296 785
5126 5484 467
5127 8283 322
5128 9394 536
5129 8347 190
5130 7125 765
5131 5243 1000
5132 6395 19
5133 5249 468
5134 6236 669
5135 5523 911
5136 5846 819
5137 8985 791
5138 6628 158
5139 7770 622
5140 9354 862
5141 6025 826
5142 8950 98
5143 7265 3
5144 6634 13
5145 7802 673
5146 7215 229
5147 5888 667
5148 7268 536
5149 6120 411
5150 8077 946
5151 7650 186
5152 6537 619
5153 6392 35
5154 7651 664
5155 8983 55
5156 5162 592
5157 7162 758
5158 6379 10
5159 8109 176
5160 8064 275
5161 7717 840
5162 5468 89
5163 6510 397
5164 6644 793
5165 6051 419
5166 5562 319
5167 6979 524
5168 8304 261
5169 6865 739
5170 6386 278
5171 6846 489
5172 7640 308
5173 8026 896
5174 6446 255
5175 6641 469
5176 6063 447
5177 9398 684
5178 5964 19
5179 8735 144
5180 6911 306
5181 5640 750
5182 6689 812
5183 7252 935
5184 6064 15
5185 6726 902
5186 5751 200
5187 8399 225
5188 6947 97
5189 6053 603
5190 6536 190
5191 7137 114
5192 6151 520
5193 5339 268
5194 8193 582
5195 8909 155
5196 5679 984
5197 5618 678
5198 8385 942
5199 6530 369
5200 7180 198
5201 7898 517
5202 7125 350
5203 5255 915
5204 5730 750
5205 7335 3
5206 7969 92
5207 8148 276
5208 7032 236
5209 6981 604
5210 7452 62
5211 8209 128
5212 5666 653
5213 6790 504
5214 9043 230
5215 9100 819
5216 6900 163
5217 8954 779
5218 6705 999
5219 6421 756
5220 6584 704
5221 9324 983
5222 6293 614
5223 7408 692
5224 7070 119
5225 7028 406
5226 9248 264
5227 9384 216
5228 6300 476
5229 6252 441
5230 8090 470
5231 5258 47
5232 9407 488
5233 5607 682
5234 7676 189
5235 9154 187
5236 5454 616
5237 9423 379
5238 6012 285
5239 8399 952
5240 5381 127
5241 7817 979
5242 7004 29
5243 7398 651
5244 7230 225
5245 7692 531
5246 8356 522
5247 7042 382
5248 6579 695
5249 6260 822
5250 6274 718
5251 6693 585
5252 7124 333
5253 5744 651
5254 7050 302
5255 7957 979
5256 5309 21
5257 5923 783
5258 9013 99
5259 6887 692
5260 5858 141
5261 6887 794
5262 7462 219
5263 8129 918
5264 6367 103
5265 6665 532
5266 7418 257
5267 6237 583
5268 8594 775
5269 9034 898
5270 7327 322
5271 8506 258
5272 8724 468
5273 6358 689
5274 8486 577
5275 5634 374
5276 7640 139
5277 7126 766
5278 5689 792
5279 8978 231
5280 9165 235
5281 6379 68
5282 5830 780
5283 7065 196
5284 7767 494
5285 6647 498
5286 7366 518
5287 6267 771
5288 7564 808
5289 7366 958
5290 6450 274
5291 6325 196
5292 5744 301
5293 6505 777
5294 6678 600
5295 5457 273
5296 9488 915
5297 6777 392
5298 7473 897
5299 6563 758
5300 7448 203
5301 8218 620
5302 6150 837
5303 6908 719
5304 6876 573
5305 8687 597
5306 8851 313
5307 6085 638
5308 8050 500
5309 6634 273
5310 8272 320
5311 6960 695
5312 6418 290
5313 7042 525
5314 6641 337
5315 7213 997
5316 8765 918
5317 5846 356
5318 7723 564
5319 6153 6
5320 8616 992
5321 8405 215
5322 6207 734
5323 6956 65
5324 7123 542
5325 8616 350
5326 7349 288
5327 7115 120
5328 8921 378
5329 8705 363
5330 9077 733
5331 7621 497
5332 8495 822
5333 8800 849
5334 6781 972
5335 8307 597
5336 6218 378
5337 7879 543
5338 5932 925
5339 8229 482
5340 8644 708
5341 9025 937
5342 7580 589
5343 9437 927
5344 7565 207
5345 7326 352
5346 5631 977
5347 7485 398
5348 6719 740
5349 8143 643
5350 8767 14
5351 6191 53
5352 6067 196
5353 8401 177
5354 9168 717
5355 7773 731
5356 5502 117
5357 9487 766
5358 7011 972
5359 7768 708
5360 9333 753
5361 6043 524
5362 5427 887
5363 7797 847
5364 6404 298
5365 7757 709
5366 6650 139
5367 6281 589
5368 8289 517
5369 6737 880
5370 9009 257
5371 5386 573
5372 8651 328
5373 6658 465
5374 7779 728
5375 5399 388
5376 5523 359
5377 7334 470
5378 8280 903
5379 8979 734
5380 5832 543
5381 9144 121
5382 5389 111
5383 5978 833
5384 5788 714
5385 7999 713
5386 8275 746
5387 6738 802
5388 9357 271
5389 6408 772
5390 6882 926
5391 6410 878
5392 7103 59
5393 7660 512
5394 6070 366
5395 6818 271
5396 8394 106
5397 9051 367
5398 8064 317
5399 6733 943
5400 7661 920
5401 7549 295
5402 6352 57
5403 7038 897
5404 5578 336
5405 6082 927
5406 8181 798
5407 6871 557
5408 9168 692
5409 6206 822
5410 7922 901
5411 9369 176
5412 7242 54
5413 8139 908
5414 5785 305
5415 7714 941
5416 8226 615
5417 8255 65
5418 5902 89
5419 8801 984
5420 7143 902
5421 5631 630
5422 8417 310
5423 8714 525
5424 9030 670
5425 8532 51
5426 6202 37
5427 7879 697
5428 8445 275
5429 5662 546
5430 7455 951
5431 8285 950
5432 5965 464
5433 5679 216
5434 8342 252
5435 5700 384
5436 8728 352
5437 7620 986
5438 9116 654
5439 9270 922
5440 7402 106
5441 6418 723
5442 7394 134
5443 5735 622
5444 6200 746
5445 8056 9
5446 5494 685
5447 6894 80
5448 8760 713
5449 7290 96
5450 7621 663
5451 7429 827
5452 9203 688
5453 6805 143
5454 8926 558
5455 8911 65
5456 9003 2
5457 5868 165
5458 7660 842
5459 6650 508
5460 7622 604
5461 9457 68
5462 9473 752
5463 8772 830
5464 7686 87
5465 7555 172
5466 9112 416
5467 6248 154
5468 6870 102
5469 8783 855
5470 9114 510
5471 8818 79
5472 8029 425
5473 7122 72
5474 8085 629
5475 6177 209
5476 6045 95
5477 6622 969
5478 6476 559
5479 5508 709
5480 6419 60
5481 7314 490
5482 8838 98
5483 8830 596
5484 6958 228
5485 8852 739
5486 8782 40
5487 6476 989
5488 8928 549
5489 8364 730
5490 6013 217
5491 8528 192
5492 7347 317
5493 9282 189
5494 6902 30
5495 6869 269
5496 6674 980
5497 5949 131
5498 8338 667
5499 6192 707
5500 7562 722
5501 6476 444
5502 6563 899
5503 7356 534
5504 9421 333
5505 7827 744
5506 7898 774
5507 8917 166
5508 8354 895
5509 6872 688
5510 9492 900
5511 8759 632
5512 5792 884
5513 8971 119
5514 8653 825
5515 6130 227
5516 9290 506
5517 7778 488
5518 5943 406
5519 8196 139
5520 8500 116
5521 7867 833
5522 8954 610
5523 7731 528
5524 8952 905
5525 8806 552
5526 9245 105
5527 6768 595
5528 5748 422
5529 5629 266
5530 7123 817
5531 7595 281
5532 9367 916
5533 6437 97
5534 6934 16
5535 6747 744
5536 6667 638
5537 7210 795
5538 7994 193
5539 6292 462
5540 5707 229
5541 6442 804
5542 6765 668
5543 6968 256
5544 9430 532
5545 7648 564
5546 5549 189
5547 5915 402
5548 5623 678
5549 5744 492
5550 7992 501
5551 7504 42
5552 8714 998
5553 6471 844
5554 8250 365
5555 9091 429
5556 7222 604
5557 9478 74
5558 7201 9
5559 6162 483
5560 7274 273
5561 7890 237
5562 7704 499
5563 8515 209
5564 8193 745
5565 6900 390
5566 7764 483
5567 8450 708
5568 9013 942
5569 7508 997
5570 6734 2
5571 7510 142
5572 7091 675
5573 8806 893
5574 7115 720
5575 7178 20
5576 8312 858
5577 7678 726
5578 6867 766
5579 8291 540
5580 6334 326
5581 7122 952
5582 8462 747
5583 7092 408
5584 7746 72
5585 5720 726
5586 7915 369
5587 5947 40
5588 6458 255
5589 8561 961
5590 7191 348
5591 8764 462
5592 8554 345
5593 8716 39
5594 5746 609
5595 6545 168
5596 7978 350
5597 7194 328
5598 7673 932
5599 8871 252
5600 7328 96
5601 8770 706
5602 7953 708
5603 5973 742
5604 7227 633
5605 8607 533
5606 6776 935
5607 6597 259
5608 7455 202
5609 8831 840
5610 6022 945
5611 9146 650
5612 6292 75
5613 7638 988
5614 7866 362
5615 6060 579
5616 7796 273
5617 6327 771
5618 6184 422
5619 6026 349
5620 8110 772
5621 9194 62
5622 6682 301
5623 5768 616
5624 9391 732
5625 6305 243
5626 9488 348
5627 7211 346
5628 9000 653
5629 6629 803
5630 9368 416
5631 6263 901
5632 8033 652
5633 6085 796
5634 6268 988
5635 5733 254
5636 6460 488
5637 5648 695
5638 7308 264
5639 6096 745
5640 6256 597
5641 7382 31
5642 6305 762
5643 8576 752
5644 7098 117
5645 8105 467
5646 6533 971
5647 8354 419
5648 8021 687
5649 6289 146
5650 5716 46
5651 9070 151
5652 7681 767
5653 6877 897
5654 6001 661
5655 5906 946
5656 6807 158
5657 5775 830
5658 8478 747
5659 8799 426
5660 7508 856
5661 6209 654
5662 7536 725
5663 7400 514
5664 7086 597
5665 6652 595
5666 9289 802
5667 8910 310
5668 8342 943
5669 5882 576
5670 6998 570
5671 9039 677
5672 8404 913
5673 6696 84
5674 8633 18
5675 9492 848
5676 8848 979
5677 7654 687
5678 5724 302
5679 9339 628
5680 6423 289
5681 6816 118
5682 5886 714
5683 9397 928
5684 9145 932
5685 8014 766
5686 6167 570
5687 8335 394
5688 6878 547
5689 7600 569
5690 8252 927
5691 6251 599
5692 6190 871
5693 6620 136
5694 6470 903
5695 8034 993
5696 9273 192
5697 9315 438
5698 7620 201
5699 8592 250
5700 5712 164
5701 8273 220
5702 5799 178
5703 8918 976
5704 7907 522
5705 9452 364
5706 7120 791
5707 8331 18
5708 5866 862
5709 6620 357
5710 6572 524
5711 7531 191
5712 7315 170
5713 9324 944
5714 7506 190
5715 7211 605
5716 6991 661
5717 8751 667
5718 5877 900
5719 8129 684
5720 8868 329
5721 5904 225
5722 6425 61
5723 8675 213
5724 8011 489
5725 6567 116
5726 9185 702
5727 8897 719
5728 9014 655
5729 9415 414
5730 6495 206
5731 9295 16
5732 5981 221
5733 8241 850
5734 6922 490
5735 7122 266
5736 5753 67
5737 9430 750
5738 9363 25
5739 8881 857
5740 8109 707
5741 6881 199
5742 6174 339
5743 6556 125
5744 7550 967
5745 8214 762
5746 7074 838
5747 9278 441
5748 7667 500
5749 8194 61
5750 9345 791
5751 6203 785
5752 7174 832
5753 7685 254
5754 8730 333
5755 8697 183
5756 7799 204
5757 7369 973
5758 7018 857
5759 7090 958
5760 5894 872
5761 6984 759
5762 8502 796
5763 8190 180
5764 8900 949
5765 5915 504
5766 6026 660
5767 6065 257
5768 6962 126
5769 6351 574
5770 8227 785
5771 7920 397
5772 5888 296
5773 8830 586
5774 7902 300
5775 6452 357
5776 9336 166
5777 8489 765
5778 7171 988
5779 8128 558
5780 6601 363
5781 7941 307
5782 5792 909
5783 8015 692
5784 8644 735
5785 6586 977
5786 9379 861
5787 7739 81
5788 7270 49
5789 7793 712
5790 7030 209
5791 8790 294
5792 8249 568
5793 8470 610
5794 7974 352
5795 8425 465
5796 7772 350
5797 6950 594
5798 9192 922
5799 8021 355
5800 7937 125
5801 7977 665
5802 7848 54
5803 7052 351
5804 7207 521
5805 7580 980
5806 7626 107
5807 8937 684
5808 8430 698
5809 8480 16
5810 6254 221
5811 6447 941
5812 6408 853
5813 7927 596
5814 7407 597
5815 9233 427
5816 7957 11
5817 6729 675
5818 6154 590
5819 8892 204
5820 5933 950
5821 7131 424
5822 6364 164
5823 6343 808
5824 8133 989
5825 9351 615
5826 7428 585
5827 7875 569
5828 8565 436
5829 5844 792
5830 8747 394
5831 6223 623
5832 6246 849
5833 8981 860
5834 8461 587
5835 8755 35
5836 6376 291
5837 8036 766
5838 9118 118
5839 7920 358
5840 7387 5
5841 6584 399
5842 6217 855
5843 6677 465
5844 8495 563
5845 6482 468
5846 8437 57
5847 8821 190
5848 9418 446
5849 9070 674
5850 6851 120
5851 8337 493
5852 9237 708
5853 6223 333
5854 8727 68
5855 7537 505
5856 5918 126
5857 7657 269
5858 6968 757
5859 7889 654
5860 6509 464
5861 6906 127
5862 6238 173
5863 6979 68
5864 9334 550
5865 8386 125
5866 9118 793
5867 9135 270
5868 8023 701
5869 7593 783
5870 6735 410
5871 7043 730
5872 8183 932
5873 7761 154
5874 8713 778
5875 7955 160
5876 9183 393
5877 5941 207
5878 8122 474
5879 6226 59
5880 7496 343
5881 8588 574
5882 8123 343
5883 6587 373
5884 5951 276
5885 5910 185
5886 7954 770
5887 8346 216
5888 6526 933
5889 6561 877
5890 9474 170
5891 7963 644
5892 6106 4
5893 8108 880
5894 9500 97
5895 9418 916
5896 6385 316
5897 7021 685
5898 7066 878
5899 8031 864
5900 8465 909
5901 5980 434
5902 7298 290
5903 9004 126
5904 9175 322
5905 6750 297
5906 6785 668
5907 6323 734
5908 5999 144
5909 7669 322
5910 6582 960
5911 7521 555
5912 9124 78
5913 6681 966
5914 9203 758
5915 7220 115
5916 8749 511
5917 6341 899
5918 8256 688
5919 6131 541
5920 8737 709
5921 7840 880
5922 8256 616
5923 7113 844
5924 6519 800
5925 9470 714
5926 6742 415
5927 6770 253
5928 6854 254
5929 8594 443
5930 6980 312
5931 7705 846
5932 8875 537
5933 7622 170
5934 9275 443
5935 6474 707
5936 7214 676
5937 6555 404
5938 6840 556
5939 7676 487
5940 5967 965
5941 7489 122
5942 9286 225
5943 8374 943
5944 7024 324
5945 6253 135
5946 6040 791
5947 7205 123
5948 9005 404
5949 6618 343
5950 8021 380
5951 9362 660
5952 6228 435
5953 7203 497
5954 9316 991
5955 8930 793
5956 9228 606
5957 9334 370
5958 8839 478
5959 7648 54
5960 8302 905
5961 8066 110
5962 7120 756
5963 7832 514
5964 7426 388
5965 6343 303
5966 7412 844
5967 9493 198
5968 6569 945
5969 7339 422
5970 6328 788
5971 6486 248
5972 6302 427
5973 7578 838
5974 6920 975
5975 7656 110
5976 7044 995
5977 7066 428
5978 7253 642
5979 8683 252
5980 6187 824
5981 7063 342
5982 5984 357
5983 9445 721
5984 8560 227
5985 6896 411
5986 6178 191
5987 7204 655
5988 8261 248
5989 6009 279
5990 7102 387
5991 7980 725
5992 7448 113
5993 7501 191
5994 8351 298
5995 8636 90
5996 7629 881
5997 8788 461
5998 6978 682
5999 8633 835
6000 6540 124
6001 6158 774
6002 9067 876
6003 6338 264
6004 8044 342
6005 6765 470
6006 6963 253
6007 8795 497
6008 7930 433
6009 6653 707
6010 9248 986
6011 9014 434
6012 7591 990
6013 8724 862
6014 8791 703
6015 8885 941
6016 6063 91
6017 8971 167
6018 6384 978
6019 6682 637
6020 9019 604
6021 6246 1000
6022 8362 33
6023 7078 178
6024 7995 619
6025 9239 904
6026 6763 519
6027 6812 441
6028 9429 311
6029 6140 580
6030 6155 537
6031 7008 942
6032 6916 886
6033 7878 311
6034 7536 769
6035 7472 171
6036 9482 892
6037 7352 544
6038 7223 590
6039 9328 630
6040 8883 139
6041 6342 122
6042 9371 336
6043 8081 893
6044 6969 334
6045 9431 452
6046 9131 409
6047 6724 105
6048 6289 498
6049 6185 543
6050 7919 639
6051 8520 304
6052 7485 699
6053 8170 579
6054 7359 368
6055 7357 46
6056 7655 363
6057 6629 381
6058 7765 312
6059 7326 306
6060 7198 716
6061 9497 992
6062 7848 938
6063 6731 15
6064 7488 691
6065 6545 454
6066 7407 869
6067 8154 762
6068 6377 484
6069 6591 493
6070 8315 229
6071 6545 326
6072 8637 140
6073 7652 565
6074 8479 163
6075 7446 306
6076 8938 520
6077 6232 649
6078 7899 78
6079 9060 62
6080 9311 216
6081 6297 297
6082 9181 263
6083 9326 694
6084 8973 180
6085 6317 466
6086 7506 831
6087 7234 496
6088 8393 697
6089 6733 444
6090 8003 987
6091 7078 185
6092 7690 396
6093 6576 672
6094 6501 697
6095 6348 260
6096 7643 876
6097 6552 539
6098 9462 472
6099 7753 735
6100 7835 806
6101 9331 632
6102 7398 286
6103 7306 9
6104 8495 602
6105 8138 53
6106 9210 113
6107 9206 603
6108 9144 774
6109 7124 448
6110 6834 230
6111 9291 519
6112 7723 361
6113 8485 14
6114 6134 453
6115 6399 47
6116 7853 866
6117 7379 509
6118 9242 884
6119 6177 172
6120 7011 183
6121 7620 600
6122 8052 845
6123 6540 541
6124 8338 930
6125 6679 166
6126 6720 224
6127 6519 562
6128 6303 176
6129 9381 500
6130 9132 53
6131 7925 519
6132 7898 626
6133 7000 262
6134 7718 957
6135 9326 164
6136 7790 143
6137 7015 618
6138 9167 273
6139 8946 43
6140 9009 297
6141 7339 785
6142 6173 585
6143 8601 71
6144 7417 131
6145 9107 761
6146 8950 560
6147 7394 651
6148 7293 870
6149 7042 32
6150 9431 989
6151 8569 900
6152 8231 357
6153 7922 56
6154 7789 280
6155 8639 498
6156 6678 740
6157 9340 901
6158 7329 426
6159 7197 889
6160 6364 345
6161 7365 825
6162 9220 912
6163 6627 578
6164 8667 794
6165 8977 551
6166 6503 127
6167 6232 10
6168 6473 152
6169 9100 942
6170 8411 569
6171 9468 671
6172 8457 757
6173 9275 300
6174 6850 54
6175 9406 663
6176 7825 230
6177 6504 421
6178 8385 968
6179 7392 324
6180 9035 973
6181 7341 471
6182 8770 502
6183 6381 557
6184 7331 996
6185 9290 975
6186 8591 862
6187 6697 615
6188 8313 773
6189 7975 254
6190 7448 486
6191 6509 759
6192 8037 622
6193 6774 23
6194 6367 369
6195 9374 304
6196 7250 51
6197 9481 501
6198 7633 665
6199 7076 310
6200 6297 326
6201 7298 20
6202 6719 779
6203 8535 949
6204 6239 140
6205 6868 125
6206 8591 367
6207 6905 95
6208 6596 146
6209 9388 814
6210 9412 955
6211 9280 507
6212 8722 523
6213 6348 486
6214 7590 553
6215 8068 39
6216 6279 498
6217 6522 367
6218 8962 46
6219 7792 723
6220 8180 674
6221 7938 454
6222 8915 127
6223 6664 749
6224 7810 261
6225 8395 938
6226 6840 940
6227 7846 791
6228 9023 968
6229 8816 454
6230 8266 29
6231 6454 444
6232 7260 180
6233 7575 918
6234 6541 590
6235 6302 348
6236 8993 837
6237 7744 79
6238 7268 45
6239 6812 115
6240 9147 927
6241 9043 860
6242 6757 490
6243 7791 895
6244 7750 87
6245 7749 41
6246 6342 550
6247 7750 932
6248 7912 33
6249 6577 741
6250 6320 228
6251 8784 897
6252 7323 674
6253 9269 134
6254 8359 195
6255 8983 903
6256 6367 444
6257 7783 887
6258 9204 606
6259 6977 864
6260 8363 915
6261 9354 770
6262 6674 106
6263 6586 299
6264 8688 235
6265 6915 561
6266 8210 306
6267 7161 14
6268 6544 412
6269 6560 51
6270 6362 853
6271 8603 49
6272 7811 927
6273 9450 480
6274 7824 431
6275 7695 872
6276 7316 96
6277 8226 189
6278 9454 863
6279 7857 179
6280 6459 456
6281 7850 828
6282 7860 324
6283 6830 4
6284 6475 701
6285 7898 133
6286 7252 838
6287 8187 801
6288 8229 339
6289 7139 4
6290 6787 949
6291 7133 606
6292 8678 196
6293 7712 976
6294 7998 171
6295 6728 242
6296 9410 762
6297 9473 843
6298 8032 843
6299 6458 453
6300 8580 418
6301 8149 384
6302 7530 229
6303 7520 847
6304 8069 893
6305 9376 335
6306 8592 248
6307 8037 371
6308 9247 718
6309 9346 824
6310 8579 286
6311 8143 31
6312 9485 502
6313 8001 790
6314 9361 504
6315 6903 934
6316 7655 929
6317 6555 978
6318 9463 959
6319 7608 66
6320 9105 846
6321 9002 863
6322 7294 950
6323 7813 546
6324 8473 210
6325 8176 241
6326 8871 251
6327 8169 41
6328 8324 467
6329 7261 105
6330 8180 479
6331 6429 187
6332 6376 398
6333 7455 715
6334 8666 620
6335 9371 903
6336 6869 787
6337 8152 204
6338 7129 451
6339 6364 96
6340 7900 205
6341 7269 901
6342 8679 715
6343 7009 943
6344 8362 674
6345 9181 162
6346 8637 114
6347 9242 996
6348 9462 452
6349 7701 208
6350 9076 58
6351 7940 381
6352 7725 830
6353 8442 353
6354 7821 821
6355 7303 596
6356 6480 830
6357 6535 812
6358 8709 550
6359 8082 318
6360 8947 670
6361 8111 688
6362 8565 54
6363 9006 552
6364 8240 899
6365 7004 304
6366 7490 510
6367 8494 279
6368 9428 842
6369 8020 134
6370 8019 55
6371 7765 504
6372 7582 40
6373 8194 466
6374 6850 737
6375 7006 738
6376 7165 236
6377 7669 518
6378 7049 814
6379 8499 657
6380 8648 753
6381 6588 586
6382 6581 558
6383 6430 113
6384 8132 41
6385 7679 163
6386 7180 156
6387 8994 542
6388 8980 190
6389 6936 207
6390 7711 555
6391 9060 213
6392 7558 994
6393 7979 453
6394 8211 832
6395 7112 941
6396 7659 17
6397 6926 616
6398 7528 159
6399 8195 880
6400 7456 542
6401 8347 952
6402 8948 38
6403 8661 440
6404 9178 218
6405 6637 802
6406 6614 679
6407 8399 961
6408 9152 496
6409 8893 824
6410 6569 787
6411 8218 958
6412 6720 143
6413 7435 803
6414 9303 785
6415 8417 318
6416 8605 873
6417 6554 253
6418 8702 256
6419 8836 790
6420 7800 326
6421 7337 681
6422 6816 316
6423 6885 873
6424 8377 77
6425 8483 424
6426 7898 125
6427 8257 848
6428 8998 462
6429 8211 173
6430 7429 514
6431 7332 985
6432 6981 80
6433 8219 78
6434 7817 971
6435 8974 338
6436 8828 999
6437 6943 163
6438 8203 404
6439 9181 528
6440 6665 402
6441 9035 603
6442 6607 37
6443 8585 584
6444 9091 533
6445 7288 348
6446 7540 922
6447 6525 731
6448 6931 589
6449 8248 947
6450 8602 750
6451 6506 472
6452 9412 981
6453 9212 363
6454 6518 7
6455 6707 125
6456 8630 547
6457 8063 121
6458 9022 548
6459 7648 350
6460 7531 575
6461 8927 378
6462 7655 792
6463 7386 189
6464 8957 687
6465 6705 709
6466 6762 291
6467 7068 9
6468 6889 981
6469 9135 100
6470 7437 400
6471 7140 868
6472 8175 661
6473 9348 722
6474 9072 137
6475 9131 875
6476 6788 711
6477 8222 781
6478 6967 71
6479 7310 500
6480 9211 818
6481 7497 374
6482 7173 60
6483 8906 19
6484 7601 569
6485 7009 850
6486 7960 485
6487 8763 451
6488 8987 280
6489 8119 764
6490 8218 682
6491 8158 982
6492 8016 912
6493 9000 163
6494 7298 54
6495 8362 116
6496 6588 736
6497 7848 848
6498 8104 250
6499 8637 779
6500 8745 455
6501 8857 927
6502 7776 115
6503 6876 710
6504 7088 461
6505 6926 162
6506 6735 907
6507 7352 350
6508 8013 835
6509 7220 326
6510 7287 509
6511 8246 83
6512 7979 553
6513 8840 628
6514 8914 596
6515 8768 445
6516 7380 179
6517 7496 691
6518 8451 998
6519 7518 167
6520 8248 844
6521 8689 826
6522 7147 420
6523 8839 522
6524 9085 989
6525 9222 104
6526 6731 895
6527 7980 738
6528 9052 203
6529 9150 812
6530 7020 461
6531 7434 765
6532 7206 19
6533 7887 948
6534 8832 865
6535 7475 434
6536 6753 920
6537 7726 76
6538 6975 786
6539 8178 94
6540 9174 893
6541 6841 173
6542 7499 171
6543 6714 120
6544 8380 147
6545 9246 24
6546 7386 970
6547 8721 788
6548 7647 277
6549 6645 37
6550 7629 363
6551 7485 964
6552 7554 944
6553 9074 815
6554 8664 411
6555 8810 989
6556 7555 683
6557 7791 517
6558 9464 275
6559 6681 728
6560 8864 206
6561 8556 640
6562 6925 486
6563 8596 917
6564 7417 573
6565 8407 339
6566 6609 529
6567 7227 325
6568 9489 349
6569 8122 421
6570 7950 895
6571 7797 972
6572 8439 323
6573 8701 504
6574 6753 800
6575 9053 73
6576 8098 454
6577 8650 191
6578 9281 145
6579 8820 829
6580 7477 441
6581 7128 135
6582 8733 195
6583 9426 799
6584 7368 166
6585 7068 580
6586 6721 142
6587 6838 30
6588 8201 841
6589 8911 412
6590 8744 746
6591 7879 902
6592 8030 454
6593 6992 312
6594 7865 24
6595 9277 18
6596 7445 535
6597 8027 854
6598 7738 723
6599 8125 144
6600 8201 620
6601 7695 189
6602 6666 709
6603 6610 638
6604 8795 13
6605 8926 740
6606 7309 336
6607 9385 450
6608 7308 711
6609 8989 603
6610 8489 784
6611 9174 366
6612 9017 16
6613 8569 116
6614 7292 66
6615 8834 522
6616 7704 677
6617 9198 685
6618 7175 446
6619 8243 947
6620 7048 837
6621 8466 994
6622 6707 975
6623 9340 654
6624 8634 362
6625 6654 326
6626 7519 668
6627 7324 304
6628 7049 484
6629 7103 829
6630 7302 814
6631 7443 527
6632 8955 404
6633 7611 932
6634 7053 121
6635 7998 172
6636 7488 107
6637 8991 999
6638 7774 998
6639 7406 317
6640 9260 452
6641 7534 320
6642 8281 739
6643 9089 406
6644 8618 761
6645 8010 736
6646 6953 755
6647 7977 391
6648 7952 415
6649 9236 757
6650 9249 837
6651 7714 442
6652 8377 728
6653 9049 274
6654 8205 96
6655 7098 558
6656 7796 489
6657 7998 445
6658 8337 372
6659 7389 200
6660 8257 435
6661 8951 177
6662 8440 209
6663 9027 926
6664 9071 534
6665 7880 618
6666 7426 254
6667 7467 941
6668 8092 326
6669 8609 747
6670 8445 1
6671 8006 126
6672 8547 215
6673 8959 519
6674 9337 539
6675 7606 312
6676 7513 582
6677 7892 46
6678 7138 699
6679 7445 544
6680 7949 826
6681 9424 447
6682 7583 83
6683 7093 687
6684 6856 166
6685 6901 639
6686 9120 194
6687 7891 125
6688 7543 786
6689 7557 356
6690 8329 871
6691 8381 40
6692 9045 100
6693 8686 31
6694 8595 181
6695 7767 404
6696 9397 707
6697 8415 93
6698 8972 337
6699 8659 593
6700 7108 606
6701 8624 151
6702 7214 432
6703 9313 917
6704 7200 38
6705 8561 538
6706 7803 711
6707 7624 671
6708 8267 398
6709 8835 489
6710 8960 248
6711 7651 994
6712 8410 606
6713 9296 421
6714 7070 64
6715 7352 516
6716 7008 332
6717 8303 288
6718 8721 493
6719 9443 609
6720 8307 93
6721 9063 905
6722 8746 149
6723 8637 236
6724 7396 126
6725 9378 297
6726 6794 47
6727 7558 162
6728 8609 269
6729 7011 853
6730 9280 919
6731 6867 795
6732 8986 249
6733 8257 523
6734 7359 968
6735 9469 780
6736 8732 134
6737 7557 919
6738 8112 190
6739 7319 727
6740 6913 164
6741 7001 150
6742 6787 978
6743 8301 7
6744 8200 630
6745 7590 778
6746 7023 753
6747 7073 593
6748 8665 337
6749 9382 772
6750 7540 612
6751 8415 371
6752 7905 620
6753 8048 274
6754 7898 308
6755 7089 30
6756 8373 944
6757 8244 940
6758 8149 315
6759 7985 557
6760 7957 233
6761 7156 548
6762 8874 108
6763 8922 807
6764 8739 288
6765 6862 255
6766 7547 359
6767 9141 350
6768 9068 597
6769 7194 165
6770 7045 615
6771 7720 1
6772 7776 383
6773 8075 714
6774 7213 474
6775 8405 823
6776 8535 584
6777 9041 892
6778 7764 911
6779 7010 411
6780 8277 365
6781 8485 631
6782 7449 533
6783 8213 404
6784 8302 980
6785 9285 45
6786 8491 307
6787 8322 945
6788 9489 873
6789 8846 309
6790 8884 175
6791 8474 158
6792 8645 402
6793 8691 402
6794 7714 293
6795 7630 515
6796 9172 297
6797 7215 875
6798 9070 471
6799 8278 959
6800 9369 830
6801 9349 578
6802 9171 817
6803 8811 559
6804 7139 898
6805 9078 940
6806 9118 392
6807 6977 371
6808 7107 490
6809 6915 652
6810 7436 180
6811 8896 718
6812 7993 67
6813 7214 144
6814 7519 356
6815 8431 53
6816 8187 997
6817 7549 175
6818 6945 972
6819 7818 740
6820 8624 932
6821 7474 910
6822 9142 989
6823 8196 561
6824 7177 527
6825 7232 848
6826 9017 442
6827 6900 260
6828 9383 371
6829 8567 472
6830 7419 590
6831 7972 440
6832 7070 483
6833 8927 62
6834 7711 277
6835 8563 467
6836 7463 580
6837 8303 458
6838 8528 471
6839 6981 959
6840 8998 861
6841 7169 171
6842 8881 320
6843 8305 990
6844 8446 370
6845 7620 412
6846 8847 459
6847 9244 91
6848 9140 803
6849 8690 187
6850 7794 972
6851 8942 768
6852 8491 568
6853 7822 76
6854 8076 890
6855 8762 536
6856 7670 840
6857 6964 862
6858 7096 100
6859 8043 326
6860 8762 576
6861 8172 600
6862 7279 502
6863 8425 357
6864 7416 287
6865 7504 572
6866 8930 129
6867 8533 16
6868 7297 395
6869 7814 644
6870 7396 65
6871 7208 674
6872 7253 217
6873 7113 51
6874 8000 291
6875 6945 517
6876 9358 853
6877 8365 943
6878 6950 528
6879 8814 138
6880 9362 765
6881 8119 695
6882 8493 430
6883 9083 148
6884 8157 665
6885 6890 941
6886 9406 674
6887 7202 921
6888 9080 600
6889 7279 456
6890 8103 169
6891 7806 145
6892 8771 60
6893 7731 570
6894 9179 29
6895 7888 350
6896 7582 993
6897 6915 787
6898 8252 896
6899 7330 805
6900 8936 94
6901 8233 626
6902 8666 265
6903 6918 582
6904 7705 570
6905 8967 209
6906 7884 140
6907 7861 725
6908 9260 866
6909 8699 120
6910 7825 301
6911 8192 473
6912 7319 303
6913 8917 905
6914 8006 531
6915 9186 846
6916 7426 997
6917 8006 321
6918 8706 994
6919 8956 227
6920 8464 372
6921 8659 778
6922 9122 664
6923 8764 822
6924 9105 149
6925 8703 824
6926 7251 598
6927 7729 658
6928 7899 100
6929 8991 527
6930 7205 447
6931 7521 828
6932 7315 817
6933 7667 114
6934 8972 414
6935 8576 244
6936 9279 728
6937 7811 610
6938 7726 942
6939 7200 291
6940 6947 772
6941 7831 633
6942 7992 543
6943 8401 47
6944 7351 689
6945 8169 567
6946 7361 90
6947 8332 612
6948 8502 996
6949 9440 422
6950 8438 74
6951 7007 527
6952 7935 966
6953 7620 410
6954 6984 690
6955 7477 814
6956 9470 551
6957 9047 208
6958 8917 327
6959 9262 629
6960 9400 462
6961 7799 562
6962 8035 202
6963 9108 50
6964 6969 703
6965 7818 298
6966 7090 545
6967 7220 801
6968 7069 76
6969 8171 864
6970 7960 98
6971 7616 649
6972 7594 972
6973 9115 516
6974 8799 542
6975 8340 499
6976 8430 313
6977 8676 663
6978 7120 888
6979 8834 614
6980 8187 207
6981 9156 440
6982 9321 101
6983 9176 711
6984 7708 226
6985 7297 147
6986 8521 97
6987 7816 50
6988 7147 633
6989 9060 695
6990 7273 658
6991 7448 817
6992 7172 657
6993 7764 348
6994 7306 127
6995 7446 280
6996 8259 966
6997 8966 361
6998 7874 32
6999 9415 967
7000 7944 197
7001 7628 192
7002 7737 901
7003 8990 317
7004 8397 831
7005 7851 69
7006 8286 548
7007 9387 435
7008 7386 7
7009 9395 912
7010 7631 727
7011 8070 678
7012 8582 943
7013 7748 889
7014 7828 436
7015 7335 222
7016 7051 849
7017 8278 660
7018 7744 340
7019 7488 798
7020 7494 96
7021 7759 544
7022 7786 58
7023 7039 53
7024 8798 204
7025 7625 865
7026 7553 462
7027 9310 479
7028 7772 46
7029 9389 969
7030 8636 211
7031 7489 843
7032 8862 714
7033 8707 886
7034 8431 290
7035 8886 656
7036 8665 534
7037 8884 902
7038 7382 262
7039 8840 834
7040 7154 316
7041 9179 5
7042 8209 942
7043 8897 403
7044 7208 559
7045 7311 397
7046 8590 250
7047 7447 397
7048 9137 900
7049 8962 721
7050 8110 344
7051 8888 717
7052 8702 629
7053 9377 557
7054 8516 948
7055 7621 905
7056 8358 546
7057 9294 205
7058 7935 32
7059 7199 523
7060 8323 941
7061 8245 3
7062 9340 884
7063 8267 205
7064 7576 646
7065 7998 414
7066 9005 330
7067 8148 675
7068 8290 360
7069 9076 760
7070 9402 360
7071 8054 539
7072 9444 857
7073 8691 96
7074 8556 539
7075 7575 774
7076 9435 478
7077 8147 761
7078 9354 108
7079 7771 855
7080 7546 684
7081 7877 74
7082 8464 953
7083 7939 355
7084 8410 754
7085 8505 289
7086 8757 915
7087 8361 115
7088 7493 213
7089 7981 485
7090 8717 215
7091 7630 326
7092 8010 809
7093 8972 158
7094 9137 46
7095 7488 234
7096 9039 357
7097 8714 652
7098 8962 773
7099 7708 680
7100 8771 388
7101 7248 772
7102 8889 694
7103 8426 553
7104 7995 715
7105 8772 665
7106 8246 856
7107 8599 552
7108 8899 94
7109 8192 304
7110 9231 415
7111 9461 458
7112 8961 261
7113 8847 628
7114 8100 307
7115 8881 538
7116 9341 838
7117 8034 246
7118 7808 969
7119 7387 753
7120 7453 248
7121 8617 620
7122 9177 134
7123 8443 287
7124 7466 796
7125 7780 573
7126 7706 296
7127 7972 19
7128 7312 680
7129 8386 199
7130 9138 717
7131 7793 852
7132 9031 328
7133 9154 863
7134 8077 403
7135 8489 934
7136 7642 302
7137 9299 569
7138 7812 780
7139 8689 897
7140 7196 791
7141 7745 624
7142 9187 67
7143 7753 914
7144 9167 744
7145 8141 671
7146 7828 813
7147 7399 848
7148 9443 23
7149 9222 688
7150 8852 772
7151 8012 488
7152 9376 894
7153 7492 416
7154 8075 166
7155 7166 118
7156 7478 6
7157 8386 2
7158 9481 922
7159 7573 535
7160 7618 811
7161 8004 552
7162 7399 124
7163 8504 119
7164 9300 5
7165 8067 799
7166 8259 735
7167 9051 180
7168 8159 996
7169 8350 768
7170 7336 895
7171 8233 526
7172 8339 209
7173 7183 755
7174 7784 85
7175 7429 305
7176 7186 509
7177 8084 810
7178 7434 845
7179 7309 358
7180 7264 668
7181 8877 170
7182 9471 417
7183 8961 821
7184 8941 429
7185 7467 387
7186 7668 923
7187 7452 475
7188 9447 601
7189 8718 708
7190 7350 252
7191 7413 237
7192 8829 758
7193 8606 527
7194 9206 544
7195 7683 369
7196 9372 241
7197 8148 664
7198 8738 144
7199 8601 165
7200 9138 672
7201 8070 430
7202 7445 38
7203 8328 314
7204 8617 666
7205 8183 9
7206 7490 51
7207 7973 973
7208 7405 909
7209 8593 918
7210 7521 612
7211 8909 126
7212 8881 907
7213 7940 587
7214 8495 491
7215 7322 638
7216 8344 921
7217 8037 685
7218 9053 188
7219 7899 20
7220 9094 460
7221 7935 308
7222 9254 967
7223 8947 186
7224 8029 795
7225 8191 828
7226 9027 551
7227 8182 209
7228 9115 999
7229 8555 804
7230 8946 276
7231 7840 856
7232 8206 832
7233 8740 166
7234 9158 187
7235 9083 74
7236 8878 40
7237 8912 589
7238 7580 817
7239 9429 358
7240 8973 243
7241 9009 961
7242 7450 828
7243 8921 789
7244 8061 881
7245 9278 339
7246 9101 837
7247 7800 803
7248 8425 881
7249 8339 745
7250 8187 153
7251 7704 125
7252 7332 748
7253 8126 443
7254 7648 445
7255 8348 748
7256 8607 299
7257 9196 498
7258 7645 243
7259 9012 459
7260 9017 225
7261 9242 735
7262 7577 75
7263 7267 928
7264 7802 206
7265 7581 341
7266 8848 681
7267 7388 213
7268 8477 839
7269 8465 251
7270 8395 808
7271 9349 541
7272 9042 102
7273 9065 288
7274 9463 796
7275 9364 746
7276 7685 803
7277 7322 1000
7278 7528 805
7279 8537 335
7280 7729 346
7281 8366 603
7282 8499 899
7283 7770 378
7284 7699 163
7285 9155 430
7286 8193 257
7287 8910 991
7288 8251 15
7289 8967 17
7290 8149 552
7291 7516 677
7292 8218 578
7293 8187 977
7294 8261 776
7295 7698 818
7296 9163 891
7297 8972 808
7298 8133 39
7299 9344 556
7300 8654 449
7301 7488 507
7302 8014 354
7303 9425 970
7304 7548 642
7305 9144 27
7306 8355 466
7307 7594 983
7308 8060 186
7309 8785 765
7310 9248 850
7311 8127 925
7312 8202 337
7313 9204 198
7314 8447 565
7315 9481 662
7316 8935 637
7317 7619 241
7318 8898 803
7319 8912 563
7320 8095 854
7321 9425 279
7322 8714 102
7323 9136 373
7324 7729 610
7325 9446 145
7326 8950 752
7327 9353 330
7328 8595 943
7329 8555 705
7330 7797 229
7331 8420 348
7332 8842 614
7333 8290 96
7334 7396 183
7335 7719 992
7336 9122 146
7337 7902 421
7338 8686 840
7339 7342 776
7340 7661 341
7341 9185 620
7342 8664 210
7343 8991 710
7344 8881 64
7345 7673 484
7346 8772 116
7347 9221 554
7348 9235 475
7349 8426 284
7350 7596 118
7351 7710 495
7352 7739 257
7353 8466 526
7354 8647 295
7355 8194 513
7356 9136 94
7357 9353 575
7358 8981 825
7359 7484 949
7360 8255 852
7361 8927 896
7362 8206 1000
7363 9125 843
7364 9255 443
7365 8295 659
7366 7668 455
7367 9197 355
7368 7763 308
7369 8458 802
7370 7642 928
7371 8323 372
7372 7809 769
7373 9178 839
7374 9381 998
7375 8919 174
7376 7385 36
7377 8747 648
7378 7716 374
7379 9285 365
7380 9024 373
7381 8258 904
7382 7727 786
7383 8077 985
7384 7851 81
7385 7638 787
7386 8431 386
7387 8001 574
7388 8292 969
7389 7692 692
7390 7801 757
7391 7955 964
7392 7921 302
7393 7744 365
7394 8096 323
7395 8876 976
7396 9232 212
7397 8716 461
7398 7896 963
7399 9327 352
7400 9375 785
7401 9324 269
7402 9139 602
7403 7643 89
7404 7735 663
7405 9018 894
7406 8808 818
7407 8182 319
7408 8579 428
7409 8807 174
7410 8072 142
7411 7448 964
7412 7822 610
7413 7715 269
7414 8728 207
7415 9032 613
7416 7455 103
7417 8239 625
7418 8929 384
7419 9144 420
7420 8880 966
7421 8120 746
7422 8135 874
7423 9327 211
7424 7740 949
7425 7611 987
7426 7480 152
7427 8657 80
7428 8735 748
7429 8134 482
7430 9409 21
7431 7435 961
7432 8123 446
7433 7982 933
7434 9359 764
7435 8198 66
7436 8575 371
7437 8998 759
7438 8099 721
7439 8020 379
7440 8248 32
7441 9213 4
7442 8027 245
7443 8892 399
7444 8912 551
7445 8695 290
7446 9269 3
7447 7504 430
7448 7616 645
7449 8280 961
7450 9188 530
7451 8440 690
7452 8916 493
7453 8648 870
7454 8692 752
7455 8253 777
7456 8078 131
7457 8465 344
7458 8019 691
7459 8943 880
7460 9392 252
7461 8025 972
7462 8758 523
7463 7596 279
7464 8343 149
7465 9043 632
7466 9167 466
7467 8550 829
7468 9422 587
7469 8221 85
7470 8158 564
7471 8052 179
7472 8220 910
7473 8845 427
7474 9289 56
7475 7857 326
7476 7700 223
7477 8259 568
7478 8935 35
7479 8244 630
7480 8034 618
7481 8131 451
7482 7707 635
7483 8019 449
7484 7996 112
7485 8118 810
7486 8328 303
7487 8147 953
7488 8329 788
7489 7508 526
7490 9330 500
7491 9231 527
7492 8044 295
7493 8568 27
7494 9249 796
7495 7584 372
7496 9074 626
7497 9449 899
7498 7988 133
7499 8745 867
7500 8903 130
7501 8344 461
7502 7582 860
7503 9041 800
7504 8452 434
7505 8504 728
7506 8487 267
7507 8984 106
7508 9406 329
7509 8748 43
7510 8449 803
7511 9245 957
7512 8079 507
7513 9435 58
7514 9095 196
7515 7529 447
7516 8004 607
7517 8639 563
7518 7709 827
7519 7566 494
7520 8204 477
7521 8803 292
7522 8608 912
7523 8788 1
7524 7672 660
7525 8552 80
7526 9108 554
7527 9437 810
7528 7927 473
7529 8521 717
7530 8269 679
7531 8582 181
7532 7827 250
7533 9392 649
7534 7609 240
7535 9301 970
7536 8023 651
7537 8836 350
7538 7613 631
7539 8476 835
7540 7687 933
7541 7576 985
7542 9266 22
7543 8917 42
7544 7871 809
7545 9458 74
7546 7973 157
7547 8281 497
7548 9268 239
7549 9333 978
7550 9013 372
7551 9109 206
7552 9037 465
7553 8792 923
7554 7903 861
7555 8545 425
7556 7929 116
7557 8318 545
7558 9279 215
7559 8203 987
7560 8232 384
7561 9084 650
7562 7660 956
7563 7711 424
7564 8169 99
7565 7679 510
7566 8086 731
7567 8412 732
7568 8970 30
7569 7674 768
7570 8522 283
7571 8689 869
7572 7891 687
7573 9485 308
7574 9265 857
7575 9280 891
7576 7729 636
7577 8205 282
7578 7745 494
7579 8403 371
7580 8445 13
7581 9252 4
7582 8673 636
7583 9209 732
7584 9389 16
7585 9086 542
7586 8544 370
7587 9250 327
7588 7840 702
7589 7807 894
7590 9313 190
7591 8680 627
7592 7880 756
7593 7743 576
7594 8038 937
7595 8864 212
7596 8469 248
7597 9232 392
7598 9040 168
7599 8954 457
7600 8042 378
7601 8893 223
7602 9384 369
7603 7741 579
7604 9137 71
7605 8897 630
7606 7942 823
7607 7720 41
7608 8443 736
7609 8220 168
7610 7644 55
7611 7837 578
7612 8865 866
7613 8793 680
7614 9137 760
7615 9041 841
7616 7929 929
7617 9100 771
7618 9375 960
7619 8978 803
7620 8454 643
7621 9021 897
7622 9025 446
7623 7704 391
7624 8171 643
7625 8689 58
7626 9400 601
7627 8082 146
7628 8916 687
7629 8150 515
7630 9007 142
7631 7906 986
7632 7920 813
7633 8275 605
7634 8918 643
7635 9097 488
7636 9258 963
7637 8786 754
7638 8817 773
7639 8860 35
7640 9188 564
7641 8063 757
7642 8194 412
7643 8662 984
7644 8751 691
7645 8032 185
7646 7929 560
7647 9251 624
7648 7993 927
7649 9194 393
7650 8092 692
7651 9025 952
7652 8208 757
7653 8029 563
7654 8981 19
7655 8758 547
7656 7926 847
7657 8866 67
7658 8175 798
7659 7944 368
7660 8161 742
7661 8068 32
7662 9280 641
7663 8118 85
7664 8089 975
7665 9017 460
7666 7836 922
7667 7775 245
7668 8252 4
7669 9314 442
7670 8148 408
7671 8179 868
7672 8637 548
7673 8977 920
7674 7911 719
7675 8924 7
7676 9179 315
7677 8943 364
7678 9315 684
7679 9043 290
7680 8372 837
7681 9433 234
7682 9046 209
7683 8339 720
7684 8588 338
7685 9320 757
7686 9407 467
7687 9434 405
7688 8182 237
7689 9402 638
7690 8545 414
7691 8641 178
7692 9103 614
7693 8261 870
7694 9398 866
7695 8471 747
7696 9447 555
7697 8743 116
7698 8043 224
7699 8033 255
7700 7904 800
7701 9201 722
7702 8710 494
7703 9276 716
7704 8331 597
7705 7950 104
7706 9185 830
7707 8281 719
7708 7726 838
7709 8029 382
7710 7718 11
7711 9261 43
7712 9000 711
7713 7858 736
7714 9337 154
7715 8110 723
7716 8003 544
7717 9035 520
7718 9085 362
7719 8980 413
7720 7746 477
7721 8160 370
7722 9264 42
7723 9492 3
7724 8060 128
7725 8596 337
7726 8701 597
7727 8266 56
7728 8513 525
7729 8508 811
7730 9321 342
7731 8634 684
7732 9203 533
7733 9360 242
7734 9023 190
7735 7936 922
7736 8698 32
7737 9149 148
7738 8924 569
7739 8635 796
7740 8651 660
7741 8517 463
7742 9453 165
7743 8659 877
7744 8386 551
7745 7989 957
7746 8105 390
7747 8752 238
7748 9235 209
7749 8480 154
7750 7928 119
7751 9350 642
7752 8163 925
7753 8569 338
7754 8889 690
7755 8331 472
7756 9260 860
7757 8425 203
7758 8250 465
7759 8449 685
7760 9411 186
7761 7769 32
7762 9460 871
7763 9363 554
7764 8722 425
7765 9210 19
7766 9441 689
7767 8664 284
7768 9357 397
7769 8134 295
7770 8518 168
7771 8627 705
7772 9424 275
7773 8402 414
7774 8721 659
7775 9120 808
7776 9460 309
7777 8542 662
7778 8037 620
7779 7851 405
7780 7789 62
7781 8615 755
7782 8868 182
7783 8994 971
7784 8009 688
7785 7934 426
7786 9481 315
7787 8878 668
7788 7835 540
7789 9118 545
7790 9046 103
7791 9029 209
7792 8996 196
7793 9025 412
7794 8003 628
7795 7961 228
7796 7865 932
7797 8197 792
7798 9431 417
7799 8509 827
7800 8088 28
7801 8603 315
7802 8816 412
7803 8144 81
7804 9338 399
7805 8556 638
7806 8406 669
7807 8996 760
7808 9015 784
7809 9068 876
7810 8462 774
7811 8304 931
7812 8602 613
7813 8403 382
7814 8243 695
7815 8930 936
7816 8118 240
7817 8261 998
7818 8168 686
7819 7881 187
7820 7834 350
7821 9428 206
7822 8408 75
7823 8076 951
7824 7830 894
7825 8901 993
7826 7877 715
7827 7952 598
7828 8203 235
7829 9097 868
7830 9242 980
7831 9353 133
7832 7977 369
7833 7900 813
7834 9065 497
7835 8190 743
7836 8288 492
7837 9298 271
7838 8538 956
7839 9100 876
7840 8882 672
7841 8492 520
7842 8367 480
7843 8016 796
7844 8615 58
7845 9167 353
7846 9057 777
7847 8072 109
7848 8670 971
7849 8953 675
7850 8212 678
7851 8333 471
7852 9115 799
7853 9175 209
7854 8148 701
7855 9487 456
7856 8987 454
7857 8911 410
7858 8886 386
7859 8909 22
7860 8545 232
7861 8707 50
7862 9437 64
7863 9361 949
7864 8726 495
7865 9273 318
7866 8032 205
7867 8702 791
7868 8134 665
7869 8572 850
7870 8578 435
7871 8848 375
7872 8133 79
7873 7956 100
7874 7926 21
7875 8556 621
7876 8904 651
7877 8360 706
7878 7963 556
7879 8182 428
7880 9361 815
7881 8012 358
7882 8240 479
7883 8954 901
7884 8348 948
7885 9263 340
7886 8730 191
7887 8052 205
7888 8485 989
7889 8881 581
7890 8443 19
7891 9331 282
7892 9033 400
7893 7905 393
7894 8787 337
7895 9157 768
7896 8562 962
7897 9363 771
7898 8292 870
7899 8915 109
7900 9412 321
7901 9027 563
7902 8433 357
7903 8363 447
7904 8916 941
7905 8918 659
7906 8120 168
7907 9319 366
7908 8124 86
7909 8091 112
7910 8587 989
7911 9012 69
7912 8289 30
7913 7959 626
7914 8937 534
7915 9185 490
7916 8621 645
7917 8128 707
7918 8507 611
7919 8512 321
7920 8010 668
7921 8570 836
7922 8354 123
7923 8739 964
7924 9470 435
7925 8733 921
7926 8837 402
7927 7938 44
7928 8696 314
7929 8590 587
7930 8459 771
7931 8778 64
7932 9265 264
7933 8435 357
7934 8649 207
7935 7981 666
7936 8776 914
7937 9161 80
7938 9074 449
7939 8305 391
7940 8985 664
7941 9102 659
7942 8364 229
7943 9368 241
7944 9187 370
7945 9012 904
7946 8567 626
7947 8595 341
7948 9076 462
7949 8875 13
7950 8192 856
7951 8524 563
7952 8109 79
7953 8924 818
7954 8776 734
7955 9214 322
7956 8113 736
7957 9456 363
7958 8773 647
7959 8598 907
7960 8070 540
7961 8191 585
7962 8751 339
7963 8175 356
7964 9341 168
7965 8349 753
7966 9419 855
7967 8395 840
7968 8941 246
7969 8718 59
7970 8457 513
7971 9078 548
7972 8908 620
7973 8102 727
7974 9100 607
7975 9490 584
7976 8434 295
7977 8841 173
7978 8493 999
7979 8187 304
7980 8706 745
7981 8637 66
7982 8123 851
7983 9478 27
7984 8718 971
7985 8480 386
7986 9393 55
7987 8951 763
7988 8407 28
7989 8326 75
7990 9352 674
7991 8044 750
7992 8620 471
7993 8716 605
7994 8671 636
7995 9058 826
7996 9361 185
7997 8205 30
7998 8506 266
7999 8265 411
8000 8065 765
8001 8222 672
8002 8055 249
8003 9135 896
8004 9348 680
8005 8509 259
8006 8303 984
8007 9316 404
8008 9007 496
8009 8910 557
8010 8747 522
8011 8667 611
8012 9181 732
8013 8078 974
8014 8321 674
8015 8110 712
8016 8553 961
8017 9167 90
8018 8603 962
8019 9113 891
8020 8144 679
8021 8754 46
8022 8246 378
8023 9105 612
8024 8966 311
8025 9294 177
8026 9243 161
8027 8864 296
8028 8773 135
8029 8211 710
8030 9283 37
8031 9248 312
8032 8282 913
8033 9176 145
8034 8904 275
8035 9077 838
8036 8997 701
8037 9080 146
8038 8276 516
8039 9122 884
8040 8487 16
8041 9109 218
8042 8783 22
8043 9360 420
8044 9041 489
8045 9367 454
8046 8407 168
8047 8828 864
8048 8241 914
8049 9480 711
8050 8344 43
8051 9245 9
8052 9367 563
8053 9488 364
8054 8826 764
8055 8285 238
8056 9488 174
8057 8429 521
8058 9444 463
8059 8609 204
8060 8401 709
8061 8926 318
8062 8341 472
8063 8993 420
8064 8315 259
8065 8273 981
8066 8146 255
8067 8382 956
8068 8849 676
8069 8547 423
8070 8632 959
8071 9066 469
8072 8802 40
8073 8841 313
8074 8167 358
8075 8701 586
8076 8447 159
8077 8285 784
8078 8398 323
8079 8370 437
8080 8732 567
8081 9139 548
8082 8520 433
8083 9383 312
8084 9157 131
8085 8204 442
8086 8449 302
8087 9363 204
8088 9468 905
8089 8835 865
8090 8999 81
8091 8910 395
8092 8903 160
8093 8875 169
8094 8869 335
8095 8533 437
8096 8672 185
8097 9475 436
8098 8272 336
8099 9044 372
8100 8722 161
8101 8269 425
8102 8770 985
8103 9000 617
8104 9215 619
8105 8224 907
8106 9241 301
8107 8724 367
8108 8282 11
8109 9293 520
8110 8138 7
8111 8624 764
8112 8820 522
8113 9275 676
8114 8851 924
8115 8331 385
8116 8434 977
8117 9410 229
8118 9387 517
8119 8998 500
8120 8765 463
8121 8278 887
8122 8476 360
8123 8350 759
8124 8153 884
8125 8606 87
8126 9065 520
8127 9340 103
8128 9065 633
8129 8445 44
8130 9499 794
8131 8857 984
8132 8679 345
8133 9497 553
8134 9358 678
8135 9019 833
8136 9080 655
8137 8194 639
8138 8614 525
8139 9335 5
8140 8823 17
8141 8207 782
8142 9398 243
8143 9168 681
8144 8608 361
8145 9427 967
8146 9411 859
8147 9058 44
8148 8310 741
8149 9157 270
8150 8289 649
8151 9286 895
8152 8968 560
8153 8975 329
8154 9102 669
8155 9352 136
8156 8390 366
8157 8606 750
8158 8915 401
8159 8497 728
8160 9487 549
8161 9286 417
8162 9436 162
8163 8534 389
8164 9104 975
8165 9325 735
8166 8466 716
8167 8486 749
8168 8352 782
8169 8696 993
8170 8746 249
8171 8738 888
8172 8487 639
8173 8801 152
8174 8805 426
8175 8715 527
8176 8875 449
8177 8882 588
8178 8954 544
8179 9365 351
8180 8498 729
8181 9455 291
8182 9135 786
8183 8824 618
8184 8624 692
8185 9156 226
8186 8742 587
8187 8907 394
8188 8255 797
8189 9218 730
8190 8621 815
8191 9158 781
8192 9374 604
8193 8383 914
8194 8744 254
8195 8484 140
8196 8414 762
8197 8637 260
8198 8267 985
8199 9476 276
8200 8641 730
8201 9067 100
8202 8364 75
8203 9028 286
8204 9243 449
8205 8669 517
8206 8472 581
8207 9159 262
8208 9478 203
8209 8487 836
8210 9290 345
8211 9293 684
8212 8492 811
8213 8760 128
8214 9182 543
8215 8633 667
8216 9030 288
8217 9071 41
8218 9054 936
8219 9263 79
8220 9246 629
8221 8713 157
8222 8252 490
8223 8563 249
8224 8926 633
8225 8569 235
8226 9359 695
8227 8406 634
8228 9064 132
8229 8953 732
8230 8701 932
8231 8664 897
8232 8420 890
8233 8981 161
8234 9247 459
8235 9228 904
8236 8645 457
8237 9472 408
8238 8657 729
8239 9123 732
8240 8557 796
8241 9340 132
8242 8503 295
8243 8997 362
8244 8460 691
8245 8265 732
8246 8879 605
8247 9155 91
8248 8677 595
8249 8591 864
8250 8383 173
8251 9146 108
8252 8959 395
8253 8832 421
8254 8634 331
8255 8841 461
8256 8864 413
8257 9013 898
8258 8304 390
8259 8489 159
8260 8376 448
8261 9023 69
8262 8734 609
8263 9250 936
8264 8515 628
8265 9428 197
8266 8424 301
8267 8482 751
8268 9059 38
8269 8351 297
8270 8585 695
8271 8906 633
8272 9362 543
8273 8412 37
8274 8891 21
8275 9040 320
8276 9158 235
8277 9047 927
8278 8805 398
8279 9322 941
8280 9449 567
8281 8481 798
8282 8410 765
8283 9379 92
8284 9070 947
8285 8525 162
8286 9477 344
8287 9093 125
8288 9403 406
8289 9201 52
8290 8785 584
8291 8330 645
8292 9176 66
8293 8890 785
8294 8764 891
8295 8603 161
8296 8867 788
8297 9330 633
8298 8320 333
8299 8475 895
8300 8835 798
8301 8532 342
8302 9087 824
8303 8416 377
8304 9063 379
8305 9186 818
8306 8916 862
8307 9428 88
8308 9275 666
8309 8608 254
8310 8852 765
8311 9386 145
8312 8819 790
8313 9327 51
8314 8968 586
8315 8870 688
8316 9073 46
8317 8526 227
8318 8923 187
8319 8967 846
8320 8838 577
8321 9415 860
8322 8459 355
8323 9341 356
8324 9337 388
8325 8864 647
8326 8383 912
8327 8478 44
8328 8665 527
8329 9344 406
8330 8940 171
8331 8990 830
8332 9010 962
8333 8954 569
8334 8817 337
8335 8835 390
8336 8886 879
8337 8882 253
8338 9431 782
8339 9248 633
8340 8843 851
8341 9261 832
8342 9439 151
8343 8748 925
8344 8943 516
8345 9340 297
8346 8807 845
8347 8411 408
8348 8608 307
8349 9442 962
8350 8636 429
8351 9432 386
8352 9201 532
8353 8910 26
8354 8930 332
8355 9480 53
8356 8385 724
8357 9424 952
8358 9377 442
8359 8495 908
8360 8391 693
8361 9017 579
8362 8773 174
8363 8456 931
8364 9206 932
8365 9089 587
8366 9442 882
8367 8783 825
8368 9123 366
8369 9420 485
8370 8632 692
8371 9092 197
8372 9170 93
8373 8689 865
8374 8956 296
8375 8472 929
8376 8641 527
8377 9123 819
8378 8655 844
8379 8468 149
8380 9187 136
8381 8816 253
8382 8556 898
8383 9091 670
8384 8561 951
8385 8527 243
8386 8742 999
8387 9332 141
8388 8488 68
8389 8512 923
8390 8787 476
8391 9452 831
8392 9342 332
8393 8990 750
8394 8641 323
8395 8972 325
8396 8436 393
8397 9172 956
8398 8695 190
8399 8888 603
8400 8655 913
8401 9093 848
8402 9338 432
8403 9232 638
8404 9490 576
8405 8494 406
8406 8721 825
8407 8627 962
8408 8538 779
8409 8653 650
8410 8748 398
8411 9126 596
8412 8529 75
8413 9270 241
8414 9374 933
8415 9295 321
8416 9036 883
8417 8552 648
8418 8598 625
8419 8717 44
8420 8563 887
8421 8543 440
8422 8958 346
8423 9112 613
8424 9219 63
8425 9192 469
8426 8450 49
8427 9314 719
8428 9447 543
8429 8939 420
8430 9070 772
8431 9218 680
8432 9065 715
8433 8542 507
8434 9237 675
8435 8751 520
8436 8832 642
8437 9131 890
8438 8965 9
8439 8453 818
8440 8998 172
8441 9232 228
8442 9154 667
8443 9386 978
8444 8684 737
8445 8832 383
8446 8620 331
8447 8814 584
8448 8852 843
8449 8576 92
8450 9052 978
8451 9109 719
8452 9352 869
8453 8947 599
8454 8566 637
8455 8494 845
8456 9105 126
8457 9066 895
8458 8626 171
8459 9269 318
8460 9408 974
8461 8661 131
8462 8635 511
8463 9274 740
8464 9322 125
8465 8726 323
8466 9128 215
8467 9375 503
8468 8797 198
8469 8804 136
8470 8579 308
8471 9237 798
8472 8785 92
8473 9217 179
8474 9365 191
8475 8491 668
8476 8823 244
8477 8771 2
8478 8726 1
8479 8706 717
8480 9104 345
8481 9254 470
8482 8721 964
8483 9211 14
8484 8652 62
8485 8865 11
8486 8944 954
8487 8520 43
8488 8585 661
8489 9098 597
8490 8666 870
8491 9068 322
8492 8509 140
8493 9270 498
8494 9086 263
8495 8661 936
8496 9402 970
8497 9067 112
8498 9087 219
8499 8848 988
8500 9423 696
8501 8959 183
8502 8708 204
8503 8734 14
8504 8524 496
8505 9000 11
8506 9230 103
8507 8641 348
8508 8973 833
8509 9007 640
8510 8977 700
8511 8929 923
8512 9015 763
8513 9305 831
8514 8595 561
8515 8614 475
8516 8701 872
8517 9457 119
8518 8589 428
8519 9125 303
8520 8975 739
8521 8639 117
8522 9166 540
8523 8650 312
8524 9396 947
8525 9209 53
8526 8616 346
8527 8784 780
8528 9051 738
8529 9304 836
8530 8852 39
8531 9411 518
8532 8717 450
8533 9122 95
8534 9047 306
8535 8640 753
8536 8810 290
8537 9397 6
8538 8705 253
8539 9433 25
8540 9433 278
8541 8569 937
8542 8783 147
8543 9381 124
8544 9059 298
8545 9243 994
8546 8988 407
8547 8777 703
8548 9052 842
8549 8735 79
8550 8594 469
8551 9427 708
8552 8813 890
8553 8971 35
8554 9493 406
8555 9015 950
8556 9230 646
8557 8812 365
8558 8768 898
8559 9373 309
8560 8980 672
8561 8745 18
8562 8595 447
8563 9252 811
8564 8626 207
8565 8767 957
8566 8877 861
8567 8901 103
8568 9041 846
8569 9400 666
8570 9226 35
8571 8686 295
8572 9331 833
8573 8591 798
8574 9464 841
8575 8869 443
8576 9323 281
8577 9332 658
8578 9119 200
8579 9314 618
8580 8773 632
8581 9477 578
8582 9466 894
8583 8658 904
8584 8787 572
8585 8662 114
8586 9089 979
8587 9068 103
8588 8941 694
8589 8800 655
8590 8801 286
8591 9246 656
8592 9187 501
8593 9459 32
8594 8940 782
8595 9494 126
8596 9151 495
8597 9120 132
8598 9473 313
8599 9468 948
8600 8895 403
8601 9147 593
8602 8817 712
8603 9481 526
8604 8855 315
8605 8732 421
8606 8744 858
8607 9151 820
8608 8721 434
8609 8762 183
8610 8730 891
8611 8992 889
8612 8749 450
8613 9073 141
8614 9349 409
8615 8850 463
8616 9042 51
8617 9177 337
8618 8849 913
8619 9004 109
8620 9313 149
8621 8701 485
8622 8801 926
8623 8746 378
8624 9432 231
8625 9111 991
8626 8728 384
8627 8664 566
8628 9352 142
8629 9071 362
8630 9126 312
8631 9413 447
8632 9148 13
8633 9459 68
8634 9465 165
8635 8705 180
8636 8702 835
8637 9194 559
8638 8791 3
8639 9189 206
8640 9245 499
8641 9083 578
8642 9500 577
8643 8987 20
8644 9231 458
8645 8728 944
8646 9385 392
8647 9221 336
8648 8736 808
8649 8958 98
8650 8913 303
8651 9299 69
8652 9263 608
8653 8913 977
8654 8749 510
8655 8845 122
8656 8726 834
8657 8670 771
8658 8778 514
8659 9449 643
8660 9211 291
8661 8896 860
8662 9363 25
8663 9410 227
8664 8677 357
8665 9430 404
8666 9498 708
8667 9093 636
8668 8937 686
8669 8786 740
8670 9260 904
8671 8992 949
8672 8964 619
8673 8698 566
8674 9104 538
8675 8932 875
8676 8956 247
8677 9370 116
8678 8965 827
8679 9070 966
8680 9387 912
8681 8822 761
8682 9336 142
8683 9274 597
8684 8930 507
8685 8997 210
8686 9249 687
8687 9265 818
8688 8799 867
8689 9338 556
8690 8879 47
8691 8731 590
8692 8793 768
8693 9029 674
8694 8820 679
8695 9045 85
8696 8843 317
8697 8699 453
8698 9268 248
8699 8975 456
8700 8781 372
8701 9207 941
8702 9105 911
8703 8939 438
8704 9021 562
8705 9051 837
8706 9041 516
8707 9151 1000
8708 9043 679
8709 8890 152
8710 8929 794
8711 9159 315
8712 8800 662
8713 8964 952
8714 9400 721
8715 8929 39
8716 8875 482
8717 8960 996
8718 9416 590
8719 9414 825
8720 8851 106
8721 9254 815
8722 8906 878
8723 9375 463
8724 9109 489
8725 8739 45
8726 8916 90
8727 9292 991
8728 9446 231
8729 8952 573
8730 8949 519
8731 9474 804
8732 9448 853
8733 9457 76
8734 9387 727
8735 8957 206
8736 9435 559
8737 8873 600
8738 9065 988
8739 9493 148
8740 9231 303
8741 8908 682
8742 9025 479
8743 8918 79
8744 9012 610
8745 9485 146
8746 9443 658
8747 9398 260
8748 9143 171
8749 9482 954
8750 9103 467
8751 9057 717
8752 9259 484
8753 9104 590
8754 8755 699
8755 9335 264
8756 8996 111
8757 9074 506
8758 9382 438
8759 8953 758
8760 8937 208
8761 9151 526
8762 9131 805
8763 9217 713
8764 9466 770
8765 9344 672
8766 9088 9
8767 9401 293
8768 9223 323
8769 9277 54
8770 9400 625
8771 9167 61
8772 9467 92
8773 8898 932
8774 9191 210
8775 8857 488
8776 9212 319
8777 8929 664
8778 8997 970
8779 8991 267
8780 9174 432
8781 9380 76
8782 9495 125
8783 9360 365
8784 9420 107
8785 9148 193
8786 8865 350
8787 9179 789
8788 9012 613
8789 9305 543
8790 9111 877
8791 9043 770
8792 9382 386
8793 8869 119
8794 9244 410
8795 9271 551
8796 9295 863
8797 9465 298
8798 9372 2
8799 9182 561
8800 9123 978
8801 9447 334
8802 9038 862
8803 8815 381
8804 9406 131
8805 9315 127
8806 9390 482
8807 9483 948
8808 9414 977
8809 9138 158
8810 8933 63
8811 9443 929
8812 8967 363
8813 8821 95
8814 9059 934
8815 9359 950
8816 8942 958
8817 9320 583
8818 9097 405
8819 9117 602
8820 8878 461
8821 9006 159
8822 8997 123
8823 9179 437
8824 9077 412
8825 9039 444
8826 8972 374
8827 9259 66
8828 9342 776
8829 9043 846
8830 9125 255
8831 9399 106
8832 9074 770
8833 9027 30
8834 8960 730
8835 9150 620
8836 9314 346
8837 9326 63
8838 9117 456
8839 9092 376
8840 8938 737
8841 9352 467
8842 8868 658
8843 9290 62
8844 8875 63
8845 9220 807
8846 9201 897
8847 9234 19
8848 8970 961
8849 9374 962
8850 9349 408
8851 9095 863
8852 9468 791
8853 9270 283
8854 9457 799
8855 8901 257
8856 9002 758
8857 9137 590
8858 8948 451
8859 9069 511
8860 9342 635
8861 9447 72
8862 9014 665
8863 9022 232
8864 9177 629
8865 8955 774
8866 8877 773
8867 9034 485
8868 9356 922
8869 9393 532
8870 9219 143
8871 9005 32
8872 9472 532
8873 9028 28
8874 9103 561
8875 9163 37
8876 9313 507
8877 9221 912
8878 8971 32
8879 9382 154
8880 9166 294
8881 9464 907
8882 9425 42
8883 9037 469
8884 9378 338
8885 9033 293
8886 8961 74
8887 9480 828
8888 8984 385
8889 9281 532
8890 9297 191
8891 9461 29
8892 9013 319
8893 9279 115
8894 8949 79
8895 9246 398
8896 9452 267
8897 9267 832
8898 9352 761
8899 9470 129
8900 9100 115
8901 9348 735
8902 9031 168
8903 9415 430
8904 9417 201
8905 9455 963
8906 9198 571
8907 9161 508
8908 9296 363
8909 8950 544
8910 8931 790
8911 9070 357
8912 9071 380
8913 9036 824
8914 9006 787
8915 9042 559
8916 8951 247
8917 9400 863
8918 9236 339
8919 9089 182
8920 9037 888
8921 9437 143
8922 9153 332
8923 9355 562
8924 9026 53
8925 9318 786
8926 9190 680
8927 8969 946
8928 9288 814
8929 9160 912
8930 9404 933
8931 9227 713
8932 9459 835
8933 9168 964
8934 9355 320
8935 8947 849
8936 9259 949
8937 9420 570
8938 8979 40
8939 9296 228
8940 9165 99
8941 9006 706
8942 9437 360
8943 9332 171
8944 9215 174
8945 9286 566
8946 9312 573
8947 9493 573
8948 9093 616
8949 8984 554
8950 9018 165
8951 9374 188
8952 9002 190
8953 9383 189
8954 9097 485
8955 9237 910
8956 9159 695
8957 9096 778
8958 9295 940
8959 9170 399
8960 9155 741
8961 9270 590
8962 9066 849
8963 9452 788
8964 9319 536
8965 9268 461
8966 9053 836
8967 9151 35
8968 9301 685
8969 9402 108
8970 9197 256
8971 9167 7
8972 9258 169
8973 8988 930
8974 8997 425
8975 9177 157
8976 9347 405
8977 8988 988
8978 9370 192
8979 9283 652
8980 9389 863
8981 9167 314
8982 9039 747
8983 9060 272
8984 9347 134
8985 9214 690
8986 9387 309
8987 9396 758
8988 9089 225
8989 9303 886
8990 9441 417
8991 9117 377
8992 9211 469
8993 9056 827
8994 9451 535
8995 9365 314
8996 9228 936
8997 9145 524
8998 9025 103
8999 9244 838
9000 9002 732
9001 9452 260
9002 9314 476
9003 9151 983
9004 9058 385
9005 9434 698
9006 9253 759
9007 9238 141
9008 9058 520
9009 9320 367
9010 9293 661
9011 9080 678
9012 9310 190
9013 9481 696
9014 9318 746
9015 9495 29
9016 9115 433
9017 9449 135
9018 9084 171
9019 9231 452
9020 9471 593
9021 9119 899
9022 9024 602
9023 9317 734
9024 9178 725
9025 9156 90
9026 9314 913
9027 9368 139
9028 9193 973
9029 9429 284
9030 9127 360
9031 9273 565
9032 9112 51
9033 9283 304
9034 9259 766
9035 9312 257
9036 9104 988
9037 9182 301
9038 9463 988
9039 9342 31
9040 9134 889
9041 9140 631
9042 9089 751
9043 9418 750
9044 9425 936
9045 9480 366
9046 9431 539
9047 9497 103
9048 9203 963
9049 9219 436
9050 9466 193
9051 9500 248
9052 9114 690
9053 9314 473
9054 9355 107
9055 9352 464
9056 9162 33
9057 9462 856
9058 9317 253
9059 9153 644
9060 9110 93
9061 9102 371
9062 9222 898
9063 9140 166
9064 9068 558
9065 9210 375
9066 9209 940
9067 9264 163
9068 9105 458
9069 9388 237
9070 9135 898
9071 9235 832
9072 9075 198
9073 9192 25
9074 9417 865
9075 9453 789
9076 9353 253
9077 9234 280
9078 9421 960
9079 9357 658
9080 9140 979
9081 9250 679
9082 9321 331
9083 9324 744
9084 9280 848
9085 9302 545
9086 9195 654
9087 9192 836
9088 9193 934
9089 9363 862
9090 9308 203
9091 9200 318
9092 9499 210
9093 9486 204
9094 9157 467
9095 9295 86
9096 9097 856
9097 9310 789
9098 9266 174
9099 9284 990
9100 9324 7
9101 9140 487
9102 9192 359
9103 9242 579
9104 9449 572
9105 9141 391
9106 9424 221
9107 9490 742
9108 9251 975
9109 9360 999
9110 9435 281
9111 9257 27
9112 9411 297
9113 9373 484
9114 9318 989
9115 9158 873
9116 9401 814
9117 9316 235
9118 9221 974
9119 9329 570
9120 9171 596
9121 9490 377
9122 9124 520
9123 9370 45
9124 9216 507
9125 9177 689
9126 9248 196
9127 9213 112
9128 9369 424
9129 9392 139
9130 9491 95
9131 9194 756
9132 9216 460
9133 9330 169
9134 9164 51
9135 9283 450
9136 9357 938
9137 9203 981
9138 9233 307
9139 9470 347
9140 9196 307
9141 9356 16
9142 9391 34
9143 9491 849
9144 9183 242
9145 9435 110
9146 9218 773
9147 9372 112
9148 9215 126
9149 9368 368
9150 9407 844
9151 9356 298
9152 9292 808
9153 9479 786
9154 9403 251
9155 9459 206
9156 9244 720
9157 9303 541
9158 9302 26
9159 9322 734
9160 9384 335
9161 9227 941
9162 9496 666
9163 9339 569
9164 9418 899
9165 9241 831
9166 9392 639
9167 9499 304
9168 9301 271
9169 9382 491
9170 9442 773
9171 9190 673
9172 9215 836
9173 9246 595
9174 9345 1000
9175 9499 617
9176 9443 90
9177 9209 448
9178 9363 227
9179 9387 235
9180 9395 673
9181 9288 207
9182 9397 505
9183 9464 925
9184 9327 342
9185 9367 130
9186 9488 938
9187 9284 451
9188 9195 442
9189 9207 816
9190 9332 786
9191 9294 119
9192 9269 4
9193 9404 306
9194 9333 376
9195 9198 92
9196 9401 586
9197 9214 660
9198 9395 517
9199 9287 670
9200 9462 219
9201 9483 61
9202 9315 378
9203 9383 743
9204 9457 38
9205 9225 292
9206 9371 383
9207 9299 116
9208 9390 198
9209 9264 336
9210 9359 704
9211 9420 925
9212 9460 562
9213 9263 992
9214 9344 874
9215 9322 840
9216 9345 468
9217 9444 920
9218 9234 662
9219 9497 904
9220 9381 256
9221 9411 961
9222 9236 323
9223 9311 975
9224 9239 886
9225 9475 147
9226 9324 265
9227 9283 487
9228 9238 875
9229 9246 407
9230 9400 725
9231 9237 805
9232 9464 247
9233 9500 520
9234 9398 747
9235 9336 538
9236 9311 816
9237 9313 397
9238 9432 539
9239 9348 254
9240 9278 452
9241 9456 39
9242 9450 648
9243 9355 822
9244 9477 524
9245 9279 32
9246 9291 158
9247 9387 797
9248 9378 202
9249 9308 648
9250 9296 195
9251 9351 57
9252 9488 930
9253 9426 302
9254 9383 280
9255 9299 784
9256 9318 563
9257 9350 874
9258 9374 992
9259 9317 36
9260 9391 394
9261 9354 452
9262 9272 138
9263 9482 213
9264 9346 361
9265 9348 891
9266 9334 800
9267 9326 178
9268 9327 540
9269 9425 922
9270 9362 919
9271 9423 376
9272 9479 868
9273 9483 154
9274 9413 932
9275 9425 305
9276 9314 131
9277 9409 586
9278 9460 267
9279 9414 69
9280 9345 954
9281 9428 147
9282 9398 566
9283 9468 184
9284 9359 70
9285 9392 186
9286 9423 494
9287 9289 214
9288 9353 52
9289 9298 499
9290 9339 860
9291 9380 916
9292 9391 415
9293 9459 164
9294 9368 598
9295 9380 483
9296 9322 353
9297 9322 559
9298 9420 282
9299 9313 232
9300 9429 253
9301 9468 132
9302 9303 63
9303 9390 402
9304 9390 32
9305 9377 811
9306 9451 160
9307 9490 390
9308 9450 571
9309 9428 561
9310 9384 506
9311 9347 639
9312 9363 402
9313 9316 881
9314 9439 686
9315 9411 456
9316 9384 923
9317 9351 255
9318 9343 157
9319 9333 187
9320 9375 101
9321 9432 828
9322 9492 848
9323 9403 543
9324 9478 216
9325 9391 186
9326 9485 320
9327 9353 117
9328 9457 497
9329 9408 623
9330 9395 623
9331 9364 597
9332 9474 689
9333 9437 629
9334 9449 562
9335 9479 283
9336 9485 414
9337 9455 722
9338 9458 853
9339 9480 138
9340 9486 155
9341 9493 38
9342 9488 996
9343 9415 151
9344 9376 127
9345 9438 303
9346 9419 925
9347 9403 942
9348 9377 106
9349 9495 631
9350 9403 342
9351 9471 956
9352 9408 179
9353 9458 501
9354 9462 9
9355 9368 176
9356 9362 780
9357 9471 899
9358 9364 693
9359 9473 443
9360 9410 479
9361 9451 683
9362 9390 334
9363 9472 575
9364 9410 293
9365 9376 614
9366 9416 567
9367 9380 294
9368 9402 716
9369 9491 43
9370 9417 291
9371 9422 937
9372 9374 238
9373 9390 667
9374 9470 486
9375 9486 422
9376 9495 760
9377 9443 849
9378 9495 856
9379 9477 710
9380 9389 425
9381 9496 633
9382 9490 926
9383 9436 89
9384 9435 186
9385 9438 875
9386 9453 910
9387 9414 489
9388 9398 293
9389 9466 663
9390 9492 545
9391 9494 323
9392 9477 49
9393 9459 994
9394 9432 9
9395 9489 68
9396 9450 759
9397 9406 625
9398 9431 47
9399 9403 767
9400 9454 479
9401 9431 582
9402 9475 82
9403 9439 811
9404 9450 666
9405 9469 8
9406 9443 791
9407 9437 711
9408 9459 765
9409 9450 625
9410 9478 473
9411 9475 612
9412 9477 762
9413 9444 676
9414 9428 690
9415 9486 204
9416 9487 446
9417 9466 992
9418 9489 457
9419 9448 253
9420 9476 287
9421 9432 587
9422 9440 295
9423 9440 746
9424 9461 838
9425 9498 291
9426 9429 223
9427 9432 795
9428 9478 328
9429 9446 622
9430 9452 577
9431 9487 112
9432 9480 892
9433 9483 274
9434 9478 864
9435 9449 822
9436 9451 672
9437 9464 85
9438 9456 681
9439 9465 90
9440 9495 717
9441 9492 776
9442 9481 518
9443 9449 176
9444 9471 347
9445 9464 754
9446 9450 991
9447 9493 63
9448 9458 969
9449 9466 944
9450 9463 564
9451 9467 768
9452 9494 600
9453 9471 944
9454 9479 773
9455 9494 9
9456 9486 510
9457 9498 205
9458 9500 705
9459 9480 143
9460 9465 169
9461 9463 904
9462 9493 885
9463 9485 911
9464 9467 659
9465 9485 592
9466 9497 87
9467 9492 723
9468 9479 67
9469 9483 174
9470 9498 337
9471 9482 60
9472 9494 671
9473 9488 863
9474 9496 566
9475 9476 864
9476 9481 111
9477 9478 961
9478 9482 181
9479 9486 518
9480 9500 102
9481 9484 789
9482 9491 576
9483 9490 476
9484 9491 27
9485 9491 843
9486 9489 22
9487 9498 976
9488 9493 665
9489 9497 142
9490 9492 41
9491 9496 451
9492 9497 717
9493 9499 86
9494 9497 84
9495 9496 660
9496 9500 226
9497 9499 652
9498 9500 57
9499 9500 37
4902 7022 3916
3638 8053 721
4219 4952 4789
4975 6393 8861
1153 3929 6254
1476 3375 2152
218 3251 169
6923 9155 564
3139 5026 7836
3475 4682 4737
9030 9063 3486
919 8043 9473
2525 8571 5829
1655 7176 3546
5277 5742 3799
7623 9395 8974
3158 4438 3989
3761 8294 541
9205 9313 7944
2806 9179 1436
1636 7210 2683
4941 6504 1419
7737 8686 5614
9080 9096 2839
2464 4012 8803
4909 5493 9410
6474 7564 2858
7712 7988 1620
8353 8565 5424
354 7371 9443
6339 7741 2710
476 4476 2543
3785 6561 4298
5981 7071 6080
8726 9110 6853
349 2167 4038
7032 8029 2651
4736 5512 5189
7608 7844 7196
4218 7170 92
7189 8943 6013
7767 8948 8920
1506 1657 1166
4704 8455 1324
6161 8747 6509
2073 8153 3167
9441 9493 1219
1029 6385 6723
2290 4722 857
2896 5968 3579
5676 7136 6361
3030 9032 5464
1331 2368 7768
8589 8941 6949
6521 7686 3878
3891 8060 1406
4437 6728 3503
6766 9465 2913
6117 8983 5167
7406 9469 2225
6723 7246 8656
5602 7263 9028
7859 8713 7720
6634 6737 705
6854 9245 445
8859 9316 5335
2661 9266 4001
344 4220 5209
3979 9147 4532
7132 7444 95
1583 4998 5730
1930 2831 9284
6429 9043 1820
2760 4400 692
8376 9421 4579
6448 7545 8293
4471 4531 4383
6770 8770 1769
7999 9150 7653
7994 8878 1032
2310 5764 1885
3050 3686 3936
3033 5183 6113
2952 8482 1914
7441 7871 5482
3529 9327 6540
6451 7990 8819
5332 6777 4308
1131 6960 1756
6822 8203 4350
4506 7067 67
5958 8346 2063
1796 3528 5492
8059 8934 3833
8846 9263 6267
6117 8454 4846
4280 7321 6850
8843 9170 8869
7211 9409 8910
3515 8002 7427
2506 5517 4277
4079 9140 5625
1059 6379 6213
7095 9334 7775
3523 8336 9192
6335 8815 7227
8614 9253 6006
9073 9271 629
3676 3966 5093
1320 5824 514
1453 4575 3040
9465 9489 8425
524 3631 886
2951 5412 1206
8426 9374 2002
1265 8336 4266
2698 3627 3722
8349 8904 5951
4189 9127 6259
3603 9163 1522
3535 3969 5206
887 1202 4376
2794 4354 513
8835 9168 7071
4864 8339 2151
173 5477 3414
3318 8149 5964
4497 6987 4623
4489 6350 6038
8371 8663 1260
1046 7633 7471
6412 7732 9266
1204 7808 2571
8097 8705 4370
7732 9292 819
5583 8816 8903
4296 7807 8935
7992 8052 7414
8207 8447 7143
830 6637 9304
2184 9157 5354
2824 6761 2649
11 4599 2803
2873 7508 518
114 3584 6377
1956 7037 3556
532 4423 7149
9178 9387 5265
4194 7719 3205
3511 9099 8475
4808 8760 8344
5379 7412 473
3936 5704 9059
3263 5763 6459
754 5753 3868
1842 8425 5445
8372 8640 2524
4865 5638 9351
5786 6938 5667
1683 7795 3350
6872 7268 5456
5940 6020 1970
384 2341 346
987 1622 6666
5461 8555 5618
3116 8304 464
7571 8784 2336
624 8093 7268
7089 7887 5803
2053 8029 5076
1374 3329 321
8267 8331 4821
9316 9321 8356
1900 7080 4750
5216 8901 1420
3532 5938 3461
8735 9415 7188
7541 9060 7841
1266 3687 7292
7086 9140 5384
2624 2875 8192
2124 7731 8290
485 798 7361
2882 6521 5726
458 4336 5264
3193 4342 7752
4947 9136 9435
3040 9368 7124
2071 5121 4164
4760 8407 9257
176 7098 2531
1708 6807 1131
3119 5011 1023
5987 8004 8546
8354 8985 4430
4539 5296 7995
9344 9485 3851
3215 9087 6438
6673 7262 3927
5881 8623 6016
7766 8603 8974
1271 6894 5267
9394 9500 1441
136 7239 8703
8223 8511 9113
2533 7481 2670
8428 8894 9216
689 6757 1296
6269 8696 505
1144 8582 2833
4144 4933 7062
7538 8726 5966
2197 9250 6548
6356 6883 5598
5833 8680 7508
3060 4051 5716
5934 7567 957
944 8378 8629
58 2205 7508
5741 9121 1274
401 8938 1592
73 301 9311
4716 8798 7730
8305 8890 6951
7736 8983 1046
7330 7350 3387
4211 5642 310
3233 4647 3553
1704 6507 3164
9052 9315 4742
8104 8309 3579
8896 9456 1696
1488 2389 2588
8762 8765 8995
9273 9473 2718
3004 3807 4472
9238 9301 8252
1488 3622 6113
2182 2674 8574
3323 6707 8513
5122 8133 6888
8819 8971 3973
5166 7001 5471
3975 6060 8899
5723 6592 939
5679 6643 530
5233 7661 8700
3901 5534 833
4679 6364 3210
8377 9217 2329
1467 5771 7095
1041 7495 2975
8655 9363 3226
6275 7183 1481
2731 7778 7689
2051 9100 518
4774 8213 4903
8906 9288 7569
6879 9308 2475
36 2601 4358
1727 4157 6694
5971 7354 4244
489 9379 5231
432 5390 4246
6199 7396 9353
8430 9396 5582
3967 7247 9305
8005 8752 3010
7020 8419 4958
400 6661 1695
657 2982 6467
8110 8584 1361
4911 5716 1999
2081 4156 2277
4175 6366 303
7662 8705 6720
9397 9467 3123
7193 8501 2971
5757 8554 4807
9272 9342 7170
8384 8532 3813
6038 8745 1370
4090 4548 2883
6413 7363 5269
4428 7309 1433
7375 8586 3159
5742 8171 8312
1394 4741 3582
1346 5731 5978
827 8188 3735
5465 6363 1345
7737 9049 8440
5259 5468 2206
1060 9310 6619
7589 7663 8955
6159 6738 39
6814 7860 8622
8151 8373 2927
8010 9271 7352
6770 7397 6118
195 8964 4658
7856 8395 3580
6327 9031 5721
2603 3112 6111
3437 6221 5070
8637 9133 2479
1177 5195 6512
8422 8656 4986
1519 6845 7769
4320 6688 6527
6400 9044 8862
7511 8878 3417
2068 8977 7004
380 7710 672
9266 9324 129
1052 3823 4295
6723 9424 8476
7942 8244 7231
5479 8832 8668
4726 6961 3938
5345 8475 9266
4495 4709 1496
4774 7729 2974
5453 6000 711
7035 7188 8306
4603 4718 199
2553 6110 291
3099 6185 7350
1462 6324 6745
1733 7344 4214
1253 3398 6556
5340 5360 9021
461 5941 7535
7872 8630 8279
5730 6646 1227
3803 7907 5924
4693 7953 728
8502 8609 1895
6984 7395 4632
1641 5881 1659
2259 8296 594
7133 8678 3687
1439 5354 1658
7880 8973 2344
8127 8688 3546
5533 9391 3824
1378 7462 1481
2646 5364 3393
4176 9138 7529
6266 7146 3043
2944 3213 4601
9055 9455 426
8551 8960 581
7385 8625 4025
3119 5706 2034
5740 7811 5590
5502 7598 5603
5151 5976 7702
7445 9217 5765
1382 6025 4007
3604 3763 1563
2227 5822 650
5557 9353 5407
96 6667 7253
1108 1119 2852
342 2742 1795
7426 8651 5023
8598 8946 2951
3834 5119 4484
6667 6878 6488
3599 5468 9459
2474 6353 3611
7916 8085 6559
7331 8854 2168
4877 5755 6947
7960 8017 4630
527 7689 8913
1005 6827 642
7668 8374 324
5696 8208 7
6112 8880 7425
2320 8475 6797
529 8434 1946
9184 9286 2521
6645 7121 6813
9347 9391 1449
1665 6037 6512
6465 8858 3993
2154 4341 8711
637 6753 2374
8961 9181 5808
1653 4981 2230
4095 7199 167
932 2690 4219
4178 8491 8677
3897 7022 7967
970 9424 3573
7508 8655 7724
114 6722 6257
1063 1379 5113
1177 3937 4815
6359 9380 574
1102 3307 6032
6379 7892 4055
3973 4278 7017
4029 4528 5023
1763 5048 3702
9000 9054 3790
53 3801 2089
882 2464 1071
5946 8647 2257
3706 6409 6969
7371 8003 3229
5604 6560 4235
7886 8028 7161
1853 7320 4932
3666 8228 7681
1870 7490 9061
7666 7714 9014
6277 8426 1523
7992 8269 5492
570 3427 5786
891 3319 5927
70 2521 1341
3759 5978 7759
5516 7186 2695
6856 8774 9416
4919 7243 1263
7540 7731 2399
6844 8769 2402
6484 8573 7726
7151 7162 4850
999 3699 1164
4288 5070 3803
55 4744 4897
8183 9190 9347
597 7337 968
897 7220 8691
5053 6165 450
5611 6661 6185
1065 9093 6392
1405 2950 6355
6596 7375 8866
798 1455 9200
1534 8127 7421
709 5903 6031
8049 9347 7975
854 8531 1506
2714 2765 2803
895 6392 5753
1367 3651 2477
6992 7019 4153
1738 9457 3406
3672 6416 2691
5811 7958 7596
4875 6392 8560
1066 3428 2755
8656 8772 8247
4808 6208 978
813 9385 430
8757 8829 7851
5926 8954 5249
3362 8594 1380
1107 2180 4363
1212 3323 5060
564 8957 8432
5865 8123 2640
6021 8214 5889
2121 4483 6091
6484 7119 9058
1565 5264 5977
3633 6906 9135
4843 9050 3169
6360 9354 9020
3972 4956 2022
9020 9486 111
3247 5767 6064
6670 9385 1148
8235 8969 9211
9383 9388 1537
4016 9443 1337
698 1109 6325
7927 7942 4639
8446 8735 3000
1178 2230 6799
7995 9453 6851
5913 7282 3950
7429 7872 754
2897 7181 5141
421 4938 715
8135 8404 7473
3273 6810 3424
8291 8385 1285
1935 2681 3814
6805 9266 7579
318 9499 3741
9199 9285 2543
3125 4682 7181
7389 7456 2892
3989 6490 7540
2839 6645 5957
5251 5702 8398
370 1349 8635
4993 5770 9302
9125 9408 132
1007 1949 9121
1669 8050 5240
5448 7083 1979
2555 7317 4975
4286 9220 2519
8101 8920 3910
1140 3080 5785
6897 7814 9214
3632 5409 7169
1849 2333 6395
5769 8413 8843
5534 8942 6780
7275 8333 1114
5715 6773 3273
1095 6736 1398
4693 8475 434
8877 8981 1719
1329 8051 926
7822 7983 1741
1407 7159 8155
2605 4506 1536
521 8780 6579
8025 8139 4589
5040 5373 8616
637 5530 8120
3969 9457 2271
8635 9001 1968
4901 7235 7158
5485 6847 9475
3402 5012 747
2125 6850 4509
3531 3604 2013
1968 4336 6845
1444 7257 9470
9373 9401 4574
1968 5171 5152
275 6563 4549
8970 8973 6823
4679 7930 3368
8919 9404 4404
5962 7739 4255
7951 8413 7507
3162 8175 8130
1727 6927 6888
9001 9099 998
5093 8445 5652
5210 8048 3766
8437 9125 4075
4905 6895 546
8855 9021 7669
7993 9365 8361
6078 8309 7157
711 3213 9282
7039 7991 8609
4893 6263 906
3947 6230 7125
3863 7771 8109
640 7797 8443
8151 9236 404
9390 9472 4504
939 4360 9230
2817 8551 6603
1428 3792 8887
2945 7736 3222
79 9219 4004
1434 2528 254
6611 7986 9280
9257 9285 6640
119 1526 4176
4903 7300 7228
4711 8049 228
5750 7401 2644
4150 8622 8146
5274 6093 4183
2415 6045 5261
6605 6921 8106
689 9403 5772
5420 6511 6894
7566 9047 1490
5323 7621 9479
7826 8580 3609
2390 6888 5491
2428 5042 2426
9106 9473 621
8878 9223 248
2204 2756 5192
8790 9292 1858
3651 7257 5053
5246 7606 8250
8186 8320 5497
9418 9426 710
643 5938 6917
2076 7894 8034
5954 6821 618
1650 5510 3231
5680 6762 5675
3618 5168 8330
8650 9039 2986
3752 4317 2010
9238 9491 7730
4799 9464 6391
2796 3553 8804
3415 7522 6699
2368 8274 5355
8017 8657 6660
7561 8614 5221
3426 4473 2194
2725 5875 5675
5892 8835 2399
5768 6261 7797
864 7514 5916
3966 7976 8859
6132 6213 3788
7 7727 33
3983 8646 8269
3698 5573 1896
9202 9444 705
4070 6053 461
9156 9338 954
7457 7577 1713
4099 5935 4645
5805 8477 8918
4998 7777 3399
6812 7683 4596
6851 9418 6985
2350 3548 355
8514 9196 4070
3608 7766 6330
3445 7657 8311
6914 7172 8958
7617 8006 4698
3047 6016 833
1043 8079 1578
1585 2693 7046
9263 9352 4061
5811 9211 517
5482 6538 4125
6057 6654 2511
823 1655 7514
8658 9486 8839
6474 9466 2318
9491 9498 7379
3603 5290 5627
309 7054 2972
6458 7258 7774
3079 9099 8320
8938 9222 5033
8819 9498 383
1945 2320 5164
212 4451 7993
2843 5397 2682
3067 5154 6441
2174 8624 4770
8654 8683 2317
231 1514 6839
5780 8652 1573
4544 7709 1
8030 9178 1146
8454 9003 6704
5982 9383 6979
2890 6143 463
7157 8573 3092
4353 5527 6871
7296 9085 6865
6101 7014 559
922 2567 3537
7207 9280 2924
3995 7035 9496
5103 5363 7130
594 8009 8472
3902 7453 7132
9457 9481 8623
8173 8961 8411
3251 9456 3444
9359 9376 2795
7821 8192 3667
4844 6271 5118
7169 7178 3566
9382 9432 3512
8493 9333 7888
1441 6757 3651
6528 6666 6081
2823 8720 6358
8810 9286 13
8328 9326 1397
2662 2978 244
8494 8502 4021
5627 6127 2527
2020 3911 4644
6567 7929 5251
1772 7800 7864
1698 3599 303
8252 9067 9115
1384 2016 8997
3992 8915 6079
980 2726 2102
6059 7607 1654
6381 8861 6094
500 6540 408
3987 5595 4338
2024 4448 1966
1425 8186 806
3790 7680 172
991 3982 5534
1399 1501 9064
937 1072 9080
6361 6543 193
7739 7928 2294
8451 8571 8800
7875 9217 5372
3741 6317 8156
1944 9281 2559
1948 7093 3587
3005 4340 7734
9135 9326 7281
7689 9158 5559
7054 8919 7640
2627 5140 5802
2606 4356 4536
8668 8760 7403
8983 9381 295
6183 6920 8334
1900 2986 8398
421 1690 7176
117 5443 2414
3985 8096 4181
1570 4119 7654
9176 9220 302
1506 2862 8608
2355 4191 7878
2623 5512 7168
5751 6784 3977
1982 2231 2189
8738 9265 6662
8206 8972 259
1973 4590 7976
3159 3423 7986
4883 6651 5626
1835 6331 978
5651 9307 6104
679 9015 8168
7123 8424 6927
1179 3842 8469
408 3115 4537
9477 9498 3514
8122 8860 1668
6524 8915 5817
4917 9036 4380
4630 6615 3731
703 1158 2541
2626 7929 1527
876 6572 218
135 1916 5268
8848 9054 8488
6926 7975 7069
7490 8590 7357
4656 9368 8990
3433 4469 8728
8755 9158 9043
3324 5059 5981
430 6313 8063
810 1587 6830
8084 9438 5359
2566 2696 776
3313 7247 249
4252 7050 5679
6159 8758 3617
9263 9334 8152
3960 8492 909
1793 4375 6981
3956 7822 3934
2134 2334 6904
9358 9472 4239
1016 8812 5883
9250 9478 2346
8008 8199 2363
2734 4913 4890
7300 9320 2200
6562 8146 6998
1670 5144 3316
327 4778 1531
3807 8201 2344
3993 5960 4854
6293 7843 8490
3766 4776 4709
1322 3278 8111
6874 9428 1749
7258 8236 2868
869 7988 6670
6063 6835 6104
8188 9365 1624
1669 6750 5254
6985 8442 7868
5256 6354 5557
921 9055 5140
357 6171 2958
4593 6671 379
2015 2987 881
5312 7875 7790
8945 8947 4764
1643 4079 3714
4709 6898 8065
3202 4574 4449
8132 9321 3895
368 8681 3054
5297 8765 2100
395 8814 7144
5436 8493 7371
4459 7245 9195
1487 8676 8511
8910 9315 7204
3347 9437 9179
2858 7167 1335
8078 9026 8931
1183 6370 179
7482 8737 5928
8430 9184 6780
3808 4230 4080
5049 8697 2421
8339 8551 4539
4262 7627 5211
4545 6736 8294
2550 3163 4405
6690 8487 1577
2165 8031 1718
4906 5724 3305
4667 7697 8885
549 6825 2634
1492 4364 7074
3607 8839 559
952 2268 3942
4661 7598 582
2994 8723 4137
6034 8843 862
1074 1693 5419
3230 8664 3741
7948 8027 5182
991 9007 7726
3147 4765 2291
307 8277 1
2569 5989 5684
293 8845 7263
1346 2367 2460
3555 4190 7601
8339 8773 1961
8473 9326 4511
5020 8967 7337
3363 8949 413
3936 5792 8633
6006 8069 5863
7382 7631 5027
1677 3246 9489
8762 9107 6093
4167 5405 5985
1093 3680 9106
5954 8098 3490
4329 5336 2995
4113 5778 497
5678 8971 2928
160 4560 1400
309 5664 9111
812 9217 7601
8431 9483 3057
8228 8583 410
7360 7834 6997
3840 5059 7306
9112 9337 2799
4599 7547 2934
6251 7250 8486
4106 8107 146
2125 8044 6226
6235 7198 3273
5591 9031 4527
1510 2585 3120
83 6599 3345
1442 6941 3611
5096 9183 4004
3878 6485 9230
6355 9370 5549
1250 5256 5336
4319 6114 5193
808 7042 223
5868 9096 8558
3693 7479 9464
4349 6577 5423
8882 8979 7911
571 677 8391
7002 7842 6399
4870 5075 8848
9306 9329 1262
5699 6443 8015
6222 9353 7353
1506 8976 3393
7412 8344 2514
4175 8223 547
6685 7831 1632
5807 7471 6326
3389 7334 1732
4773 5484 7776
4121 8317 7091
77 1986 5563
8951 9480 4644
4625 6028 5046
6508 6830 4191
8568 9401 8839
8575 9045 6889
9235 9266 9308
4750 7486 4136
9393 9442 5884
7518 9220 410
7419 9382 7741
7062 8721 334
7378 8489 9123
6766 9148 7020
4020 7254 5695
4785 9284 5211
7989 8981 6745
9445 9468 2947
7293 8137 802
183 8523 5586
6144 8156 8883
500 2462 6036
1569 7583 3808
8805 9155 7160
2972 8209 6911
7798 9364 7529
1049 2137 596
7219 8253 4751
1419 1890 7431
8994 9045 2813
8790 9321 1084
6960 9007 6234
9235 9383 4894
2787 4320 6309
331 2292 8829
2271 7384 7440
1003 6051 6353
3408 4247 2885
4889 9416 3255
5672 6777 9125
9238 9345 4809
8074 8898 8377
5929 7004 8528
1942 3228 144
1810 7533 2369
2059 2344 4403
3939 7434 894
3757 7002 7497
2530 6028 1023
3652 7338 8339
4046 6375 5254
7686 8910 6982
5563 8669 4714
7589 8132 18
6494 9341 773
5807 8111 311
1540 6370 5407
8821 9068 8548
1058 7339 690
720 5054 539
4536 7628 654
7687 8205 2393
2756 3606 629
2662 6721 4876
8689 9498 8008
4325 6740 7171
6487 6927 2737
2791 5620 307
6753 9136 2657
586 950 8715
8989 9379 232
3582 8427 5718
1905 5207 4515
9403 9464 6293
5234 7078 2964
7710 8815 8156
5293 6413 9146
1106 4254 9384
6292 7690 2472
3823 8528 2702
4620 9485 1760
4269 5292 624
1529 5466 4518
267 7681 2419
2717 5108 9447
6721 8960 8596
642 1694 8007
4415 8215 8546
7277 8587 2351
7739 7918 7363
8191 8303 775
840 8423 6308
4909 9441 1015
690 1165 2636
2223 8652 3965
5318 9413 618
3516 9227 9003
6594 8078 3023
4521 8061 1336
2556 3393 664
6950 7491 7603
5593 7465 1052
3428 6217 5264
4385 6430 3366
8541 8559 2537
1193 6172 7321
6374 6847 4138
5059 5656 6617
2996 9096 1937
7278 8217 2062
5545 7066 2078
375 2157 8411
1049 2250 7273
6667 9463 2598
8618 9278 9307
2672 7197 3798
783 5385 2094
7855 9129 8553
8875 9158 4898
2453 6287 6410
5829 6497 5185
8427 9062 8820
5173 5294 4193
72 7135 4538
3196 8003 6136
1540 2081 8831
2839 3162 8863
6355 7691 4979
6849 8032 3856
5161 7918 6008
3876 4798 7827
2785 9351 9499
534 9162 3334
4737 8113 4143
2016 4639 4280
2526 6294 615
9377 9476 5345
3251 6331 7048
3281 8273 7825
5905 6324 4601
7743 8512 2635
5034 8470 5262
331 2531 1330
8749 9143 7014
8359 8763 4153
1653 2608 7298
431 4613 9317
6406 7364 7954
7372 8440 5064
2809 7078 2863
5446 5705 1591
7397 9452 3901
7197 9124 3962
8452 8660 2864
6737 7389 2252
6986 8021 4764
8390 9249 6269
4538 5262 3871
1420 6209 7778
6889 7918 2967
3175 6692 9493
971 5244 5447
2382 8841 763
6189 8327 1311
8330 8680 6273
9434 9480 4442
6878 8630 5491
4169 4576 7836
5283 7036 3308
5356 9456 1672
4356 5233 3310
6160 9097 9270
3143 5234 5899
3663 3936 3775
4925 5294 5195
127 6099 7259
2292 8878 7406
1575 1884 8584
5901 7597 5585
6810 8614 3426
7997 8736 5592
7809 9213 383
6159 6585 8750
1492 6808 1979
3590 3917 1558
7646 7921 3287
5008 9284 450
4265 8966 3820
5746 6028 7439
7663 8849 1723
8592 9124 866
9371 9426 9037
8815 8946 2122
2491 3836 5047
8233 9023 2448
3474 9323 9347
8067 8299 4779
8224 8948 9473
6191 8213 2869
5958 7155 362
4549 5659 3167
4372 8878 252
5626 6603 3679
4824 5323 308
9189 9334 670
5787 6057 1488
484 4388 8644
827 4372 1544
4867 7447 1177
5627 8952 3537
2031 6808 5429
1098 2048 7515
4731 6372 622
4911 7444 5161
1021 3692 5827
1025 7115 3681
5981 6916 390
7013 8351 6899
3699 7087 5681
7678 8010 5230
9118 9144 690
7713 8851 4678
3501 4084 780
5441 8107 2177
5772 8929 1705
6826 7257 3163
7855 8176 1041
5195 7715 3185
4160 4701 8422
6211 8391 5289
3800 4247 2737
8467 9311 5229
4207 7536 753
5238 5829 7305
118 5530 2672
2488 7432 949
1783 7787 5327
1351 3598 9005
9005 9189 5195
7936 8362 3334
6095 7213 3151
9189 9271 8954
3196 4137 7970
1073 3645 6697
5849 6356 2574
8229 9160 5926
920 6635 5467
2345 7040 5421
8170 9245 2487
5187 8863 2817
8325 8869 5317
4571 4641 8646
5122 7029 2940
7566 8068 629
6691 9036 7768
1083 8369 2332
4303 6176 8934
3479 7066 5435
6194 8438 8313
4179 6663 8567
3739 5362 9198
2620 6163 6974
4501 6252 9409
887 5695 2267
8165 8284 4396
247 799 4919
5843 7183 8431
883 4654 8487
7248 8688 7078
3419 9082 445
1124 2676 5923
4111 8739 1542
2975 3545 8497
3703 6078 6045
7512 7710 528
9323 9367 4594
9123 9177 1285
6018 8741 8587
5681 7443 3998
3129 7052 1383
5693 6099 925
3713 6613 7807
451 7285 6693
7694 8255 2740
6275 6660 8005
325 7024 537
5985 7966 1587
3328 8340 9156
8595 8731 6405
6198 6943 334
19 4358 140
3386 9280 595
2048 4140 8828
5674 8305 2807
7146 9269 6751
1075 6930 780
4459 7696 199
3680 5832 5211
7587 7630 7486
8246 8311 155
1279 2673 2923
6166 7822 540
4310 9258 6425
6306 6655 8824
4173 6871 3915
4134 5033 9107
5608 8879 1509
5142 5932 7251
6016 7263 3561
3554 8284 1116
1197 2906 5631
1239 6480 7379
8832 9057 7151
4354 8259 4623
8102 8569 2379
5107 6015 9323
1373 5850 1542
6912 7792 3634
8684 9230 8701
1485 6620 3345
1623 5867 6237
1828 4011 3448
5900 6047 6870
7641 9226 6446
5743 9153 7054
8281 8716 2508
6414 6984 8313
8003 8476 7539
1778 5255 6797
1778 3401 2636
3055 5018 7182
6013 8831 9167
7859 8598 9465
9164 9363 2052
6698 9276 6644
2778 5659 5192
1 2273 4682
5772 7371 6287
5493 6488 4070
9135 9386 3509
4219 5307 1815
4608 8574 8525
1424 4219 2637
3041 9294 4538
5643 9356 9241
7894 8747 4047
5425 7925 6717
6488 7164 1281
6244 7429 7451
1513 5138 2512
3993 4606 2576
7093 7746 9128
7492 7695 2703
4466 6362 3078
1469 6486 7296
6317 6889 608
3589 8008 7631
7515 8105 1121
7490 8691 5996
3991 6835 4785
2255 6469 556
8260 8957 4810
1183 2729 5939
136 2292 724
3782 5741 8919
6994 7047 5775
1123 6877 4682
2817 4227 4335
350 920 1062
637 3587 675
7478 8439 3587
5098 8272 7670
9417 9483 2291
8450 8938 3441
3035 5648 328
8317 8567 3611
2747 5585 1293
1133 6112 7298
8983 9130 263
6642 6708 3138
1585 4519 5507
149 5491 3456
2879 5196 8360
4462 5331 4975
2628 8097 2667
3765 9165 6546
6312 9426 1967
4608 7629 8600
7019 9373 8428
6770 8112 2467
3602 7443 1989
7522 7748 4548
3431 4718 913
5581 7455 2702
4390 8732 2850
2085 4173 8739
5114 8886 138
6450 8680 6857
5799 6184 8634
309 1314 6972
3702 8906 2210
9464 9496 9037
4435 8424 693
2617 2837 3982
5310 7196 5132
368 3512 9365
3165 6655 6319
3282 8263 6088
1245 2359 5478
7670 8958 2006
5425 9191 1340
41 445 1226
1843 3709 3960
2068 5617 4686
1042 5177 3001
3820 5273 8528
8311 8920 1663
7254 9308 5941
9241 9465 3266
8426 9247 6769
5248 9434 2060
2642 5158 6426
6884 7119 6114
1811 8025 8694
1777 3509 806
2694 7775 9079
634 6587 5965
7739 8377 5943
2497 9105 287
937 5628 7925
2505 5113 2999
4487 6828 7235
6971 7492 6812
3689 5048 783
8072 9059 4525
192 8418 3576
5373 8282 770
1070 8302 4485
4589 6287 2513
5394 9069 7481
7364 7805 9356
7624 8818 223
1790 4988 6157
2719 5201 5525
5729 8012 7021
4861 5056 4625
1169 1979 7607
1800 3895 1307
5474 6678 6399
6168 6266 8367
8226 9253 566
2967 4423 4531
6324 8347 7369
7098 8370 8743
7350 8412 1968
510 4774 2252
6802 9421 5949
2298 3955 5295
1707 4952 7794
6865 8792 5829
1459 8192 1376
5424 7337 5162
3438 4530 4420
57 3599 2671
7405 7702 8732
3006 5113 4493
2393 4908 1149
4776 4791 3538
2739 3229 294
2784 8049 8567
5590 8543 7822
2898 8605 7232
1613 4139 2924
7753 8155 1265
6050 9447 7420
9118 9320 5253
6214 9466 8370
5667 6849 5465
1865 7850 5706
8907 8991 3211
7019 8909 7649
2579 2791 5520
6538 7353 9103
4354 8501 4835
805 7700 5613
3372 3735 7843
6922 7553 1548
5082 7428 7083
7950 8218 4381
1033 1222 5667
2004 9013 5679
241 3232 5371
9202 9456 3083
7916 8933 4417
6788 8138 4358
7227 9479 4411
597 699 2890
3751 4287 4073
6874 7435 4589
8450 9429 3422
3951 5939 539
717 5363 6757
7998 9001 355
1254 6734 3744
6917 7679 7501
7457 8445 8527
7480 8638 7305
5430 8114 6190
5340 9029 716
4946 5226 162
1081 2724 7985
2418 8874 2522
6622 6671 7495
9444 9495 510
3754 6950 5452
1247 8934 172
485 1011 8190
3550 6681 671
8738 9464 3602
3763 8310 7002
4629 7694 831
4607 6490 8345
2152 6478 7741
5257 6241 6657
4027 6001 3372
2030 5004 8510
5329 6627 6784
5221 8314 8468
1111 2535 6273
5243 7348 9498
3297 8145 627
2618 8160 8506
5982 6235 6536
3292 5212 7821
7669 7863 5441
9318 9416 4937
763 3142 9487
555 3605 7749
5454 6993 7253
100 4281 6254
681 1955 972
5195 8678 1839
5545 6209 381
5344 7756 8817
2666 8606 787
451 8106 2200
990 9150 6137
1536 3909 1724
4580 6857 5709
6121 7959 8915
7345 7770 3610
1431 8253 916
4865 9072 3942
5280 8772 2664
6491 9045 8607
1829 9149 3005
2251 8863 9270
7752 7829 9119
2321 7449 2174
2817 9298 7553
2136 7923 5084
6924 7748 7881
1214 2867 7423
8967 9434 691
1188 8748 589
5659 5776 1168
1806 1933 9217
9019 9486 2225
6303 6422 6861
7422 8648 7675
6558 7220 1695
1923 2779 2835
8427 8437 7428
1067 9342 8848
2881 7390 5157
8811 8980 3584
6336 9450 3334
2486 7680 6562
7952 9361 1115
8570 9490 1602
5050 7121 1819
8650 9216 6943
3250 5095 3263
9467 9498 5567
5996 7797 9216
5317 6187 1769
2900 9390 4013
1120 2494 3329
6134 9300 2449
289 9284 3234
3680 7677 1609
4967 5211 2949
1054 2841 3373
2684 6786 8603
4470 7746 8732
8752 8774 2611
9120 9341 4512
2438 8855 798
8739 9400 6183
4993 5186 6190
2975 7530 8570
364 1795 4763
9198 9296 2731
744 3031 2290
4888 5360 2368
651 3898 1366
5807 6637 8215
1603 1825 9496
4128 6633 761
4595 8455 5936
4836 5502 5270
6954 8589 4603
6314 8433 8929
2612 7960 448
6351 7180 3584
5065 6559 2426
106 6405 8901
301 3511 7167
7870 8340 3382
5605 5813 4996
2218 9377 2071
2711 5673 8937
2142 3007 1550
2664 8800 2646
7593 8357 2730
4120 8207 7258
238 6097 3927
3330 4574 4947
9255 9402 1242
5503 6426 3768
5509 6845 658
5279 6722 7154
4808 9324 7066
3615 3914 7816
6279 6623 6564
7070 9302 4877
1875 2432 3811
7469 7515 163
2096 7142 1670
2950 8306 727
5273 6218 5437
1573 7051 7430
5858 6032 7266
7264 8215 8722
6383 9454 800
1343 8620 4563
4307 9392 4806
4362 6981 4916
3675 6052 8727
5699 6748 6803
6286 8117 5932
5583 6340 5348
127 7731 437
8732 9003 7749
7563 8076 8302
5352 9477 1942
4089 8617 1914
192 2339 8454
1111 6433 8088
2436 9342 2683
1497 9427 1804
4810 4845 8353
8166 9499 6986
5934 7226 1846
1550 3522 8969
8135 9295 1335
1594 7718 9121
4332 7300 3789
6770 8280 5658
7377 8485 5452
4760 4899 1304
5321 6739 3688
3539 3940 4460
7065 8154 8464
5394 9337 389
8936 9219 2783
1353 5818 6134
4491 7450 4503
8704 8995 4347
2210 8803 9394
8646 8934 2946
4693 5134 9433
2975 6798 5157
2493 5192 102
1478 5830 4560
7512 9025 6719
8146 9128 7694
2972 3807 6676
6999 7145 2963
1804 6030 976
437 3306 3107
6976 7893 4769
4751 5064 6076
2182 2216 9427
3297 4085 1534
8383 9454 3418
8728 9479 702
8089 8579 8918
5134 9427 5289
1637 7394 4957
1233 2642 2186
7997 8618 7104
649 9453 8345
9249 9362 335
7889 8902 7540
5913 8136 1699
814 8316 9413
5272 5546 4360
8805 9050 1632
2965 7630 8017
1830 2298 4064
5503 8196 6380
2300 8508 1108
5147 6236 1560
16 4015 8205
8883 9066 6538
4724 5488 757
1989 2215 4022
7565 8254 3069
7153 7896 8894
3976 9347 7831
6875 8829 858
4014 5856 4668
5815 8421 5354
4448 6819 6965
1130 2106 7091
7718 8038 1153
2912 4552 4790
2836 5397 9124
5529 5976 6157
8565 8752 6598
6986 9018 6377
3295 6118 6672
4927 7817 2014
8140 9463 5442
2211 3304 2024
727 6275 5918
8485 8528 4859
2615 3248 4120
4092 5516 3372
3234 9059 2221
4167 9457 4049
5512 6562 6468
3842 7558 6919
8289 8866 4295
1053 6875 2663
8086 8907 1979
2384 4777 6892
2204 2613 4008
7946 8862 7146
8387 8454 456
8332 8719 9171
6791 8489 2616
2255 2543 3064
8923 9452 499
8120 9236 4100
1252 4895 4795
4515 9468 3058
760 7010 4111
5470 8184 5049
2798 3855 5104
7748 8823 6981
1648 6174 1490
5319 8105 4334
8603 9142 7476
3985 5337 3556
1712 7413 2398
8951 9014 1997
5105 5459 5713
1939 8295 5504
9354 9396 9157
836 6737 862
2268 3858 1598
7382 7870 7597
4291 9163 1236
4143 8746 4863
6203 6576 8618
2647 4271 5306
549 5488 2415
1976 3217 3569
195 6024 1641
8886 9155 5128
215 2768 6831
2405 8173 5023
3936 4594 5556
1294 3888 3540
834 4082 839
1139 7807 4914
4648 8087 1939
7641 9200 1979
2313 3291 5396
7087 8355 6503
5210 5453 760
8760 9393 8540
2142 2370 1521
1131 1354 6029
1029 5379 7946
9100 9269 5830
465 7108 3990
8673 9363 8310
4293 8434 169
9356 9456 2922
8393 9322 1996
1964 4598 7350
3455 5584 172
9229 9279 9451
7067 8879 5489
6666 8828 7179
3177 6633 2238
5784 8386 7513
8507 9045 2364
1753 4507 1196
3916 6401 2570
6196 7675 4645
2206 4335 2812
2180 4934 2179
8588 9066 1813
6138 9045 2939
7829 9384 2653
5625 6954 5342
4944 6092 3250
8292 9249 5049
3050 3433 2941
8627 9182 1676
615 6838 2935
6091 6140 1152
2780 6243 7015
5604 7107 6308
2697 3451 6905
8873 9359 8081
4974 9257 6612
9235 9403 7320
5857 8323 6498
3213 8172 8126
1021 1791 1931
9491 9493 8784
5736 6366 4742
7384 8229 899
1504 3340 8428
6303 9166 5724
9269 9386 7964
7302 9289 7740
2784 4815 4764
850 3294 7302
7480 9043 7383
6750 8336 3003
2503 8911 3998
950 1991 844
3949 8718 1866
12 730 6201
8563 9360 6478
5010 5588 4814
3618 9433 8827
8161 9127 6121
8522 8569 9005
3436 3935 810
7588 8103 3935
796 1106 2625
6842 6985 3336
9073 9247 8744
2310 3107 7463
2207 6704 2582
993 4140 933
5967 8382 2617
2570 6297 285
427 9489 5320
7276 7622 3526
729 4154 297
7344 8428 7946
2058 8611 7805
3043 3180 5157
1657 7819 3932
4375 7811 1177
2974 9024 3916
816 8969 1006
5104 6263 7590
5769 6231 8045
5882 8064 1382
544 4023 6511
9166 9181 529
4741 6495 4417
9011 9280 4844
8928 8957 2699
1802 3844 8545
2409 8510 552
7591 8359 8952
7627 8403 6928
7988 9112 2265
9185 9435 4124
3408 6106 7223
8071 9269 7349
3291 4719 8323
1894 2914 6759
230 1031 7551
4879 4950 1791
3881 6906 5153
6887 8971 3310
8709 8764 6257
1885 7407 534
2264 5361 8199
2592 8486 9486
520 6425 1671
8745 9364 6052
5830 7019 2731
9267 9300 8766
7089 7104 3928
4965 5604 7858
6669 9239 3448
3875 4381 3033
543 8730 5486
24 3649 2581
4545 8368 1230
6018 7157 5830
5419 6756 2326
6881 8343 8121
8963 8997 2779
4895 5148 7974
9255 9289 24
9431 9455 8866
883 7558 5604
5421 5821 7946
5933 9128 3128
9334 9463 4076
5934 8516 2795
528 1912 299
7393 9406 8088
4273 8988 6021
7452 8178 6047
328 7077 3011
4330 7374 1501
5555 8472 2580
822 8352 1789
6457 7186 5786
7920 9206 7087
6446 8979 5680
7422 9466 6178
8560 9051 5901
4040 6403 9141
7175 7861 2984
813 2091 3121
7497 8378 962
5630 7307 2656
8130 8343 5756
2525 4486 1809
9305 9469 6510
7081 7823 7877
3625 3780 4169
7955 8578 6494
3177 8351 5886
7594 8715 7570
2122 3053 2566
1878 4926 8658
8361 9188 3825
1484 7247 2119
4771 5996 8570
2783 6784 6947
7414 7934 2690
530 2084 3108
2459 5754 1589
1869 7001 4537
5564 6133 8716
1122 5419 2135
3355 6636 8975
1654 5120 4392
7525 8907 3209
7194 8179 2688
6601 7461 778
3778 5803 770
6972 8773 1009
6367 8239 1599
3385 7969 8875
8117 9424 2025
5037 7040 6951
8950 9220 4965
694 5709 7701
5345 8425 4264
9399 9432 3051
3168 4622 5788
8745 9318 501
1733 3308 4989
3841 9264 6827
4952 8781 3504
8852 9183 6346
3032 3605 6226
1562 4980 2116
1569 7063 6056
8353 9031 4272
7997 9243 1056
4649 7161 7546
6567 6831 2466
539 9025 6905
3767 4994 5603
2333 3357 2743
3475 4397 1506
9059 9212 4868
4719 6821 6124
5241 7345 2188
8856 9402 4137
9111 9185 5855
8511 9355 9067
938 4808 4851
1118 5102 5159
8401 8591 6895
8396 9196 6988
742 3199 1128
2677 5689 3043
8029 9286 296
4738 5830 4645
3256 8271 9225
1381 6138 8039
7916 8689 5976
6185 8359 8234
6053 7510 9159
6400 8088 3585
2020 6721 1390
2923 3317 6335
881 3176 6658
5929 7101 9197
2528 4708 7656
3874 6688 4082
7610 7979 3468
9000 9450 6676
6865 9365 7694
1018 5172 8282
5611 6678 7480
5735 6496 7342
4291 6933 559
8655 8754 1442
7615 7940 2239
3585 4351 7934
1115 1942 5181
6457 8491 2657
3937 9424 5226
550 7534 8
9310 9345 5302
4749 8419 9241
3300 8392 2688
1264 2239 6856
5560 6691 3804
744 4374 3837
2966 7458 3596
7523 7725 7932
3944 8186 7870
5736 8799 1016
6201 8080 8299
8743 9187 6957
3210 5567 2197
5136 5736 5371
2797 4476 1565
3450 5192 2968
6283 7492 3991
5934 9395 1351
6348 7293 5937
3330 5927 7398
3001 5633 1833
3093 5666 7748
4207 7693 5647
6556 7105 4883
5450 9283 2750
5396 7429 3477
4080 4785 8607
8390 8733 5588
8818 8969 9336
813 5238 3045
754 1193 3783
51 3083 6401
653 4200 3505
5711 6087 4305
6124 7073 6814
6965 8219 3036
7640 9494 1165
9331 9366 707
2307 3569 5561
6432 6960 7663
6383 7238 8533
5389 6175 2957
562 8148 6923
690 7522 1700
3323 7177 2878
5167 8665 8096
5779 8780 8606
7136 7283 4031
7251 7858 570
7420 7505 3433
4398 6785 7724
4862 5370 8683
1385 3742 1219
5856 6614 2666
4132 8810 4471
2447 3761 7335
1713 6227 3012
6438 9070 9399
364 1444 6257
3465 6298 5881
2623 5813 1136
4146 5130 4557
7939 8111 9093
1765 7047 626
3377 5049 5774
510 2364 7076
7183 8733 2976
406 438 391
1971 5829 6102
8927 9052 448
2461 7250 5133
5015 9453 7682
8112 8348 8319
4873 5947 130
5349 7689 6730
8002 9304 4516
9035 9486 4478
446 4583 1818
8703 9499 9227
4633 5111 5764
9072 9228 8878
6851 8735 4586
7687 9375 8590
1792 7530 6312
7838 7945 3150
8705 9143 6892
9193 9364 9132
4136 9121 6239
3570 5501 5069
6240 8192 8840
3438 4898 89
6090 7526 4799
597 6297 5175
7798 8303 4767
7940 8512 442
1831 8132 247
9218 9454 529
3874 7148 5362
1899 2736 5818
354 3867 3671
3057 4040 9188
3342 8739 7990
634 4546 3678
1788 6904 4762
3756 5372 7101
29 4981 5219
189 8383 9017
1751 2398 8217
3419 5125 8708
2585 8383 8221
8914 9235 5073
7313 7837 7424
6049 6460 1455
8607 8754 5162
8457 9484 5575
5991 6942 4498
6495 6618 261
3525 8895 182
410 8279 5292
2851 4742 6621
5820 8624 2457
4741 5357 5032
1759 3411 6127
5544 5871 6220
6900 9431 6133
5060 6149 5117
6377 7147 5798
3262 8584 9369
4589 8195 9412
9004 9096 7528
3130 4503 6074
3691 8522 6386
6214 7341 4941
3485 7050 5827
5406 6615 4340
157 3033 4457
6387 8183 2881
5884 8211 3703
4127 5104 5738
7597 8426 7966
5455 8246 6215
1034 7945 5853
8786 9343 9119
2172 8270 28
8607 9225 9098
7383 8800 7301
2494 8684 3081
7199 8968 8542
6506 7331 2474
1388 2382 6165
865 3546 2505
3195 6563 6627
1489 5340 6403
8485 9186 6017
5659 7564 7991
110 8525 3290
6961 7684 5526
3609 8707 5026
884 5992 6594
2114 2981 1047
2396 7186 5724
970 1154 1400
8896 9253 9270
3891 4214 8524
4153 6642 752
4939 7958 6760
7107 9278 3934
3837 5652 6891
8539 9433 6948
3102 7542 3222
4387 7823 8965
6225 6741 6380
656 7066 2919
7121 7422 2989
3414 4635 1655
583 5657 2316
3345 6791 8653
7844 9033 1084
6971 8832 8678
2344 7988 4196
9261 9323 6367
4647 7805 8659
9123 9447 3688
3038 8320 5448
6939 8873 3915
611 4762 4392
8748 9056 2410
5078 7294 7526
9019 9285 8201
5872 8684 7154
5941 8734 1497
4306 8587 2682
6611 8522 5861
205 4565 3921
9069 9495 1612
2259 3268 4616
8257 8579 6957
8906 9016 9183
4474 7077 4525
4313 8021 4559
7713 8491 881
8850 8946 404
6555 8074 3279
9038 9106 3179
4436 7461 4533
498 4243 8891
3310 7779 6646
3471 6318 650
1573 2075 7818
5751 8431 8297
2996 9488 2131
3015 6972 956
5978 6469 63
285 1740 9459
8370 8452 5949
9359 9405 2468
3471 5968 3663
9323 9339 538
4202 7729 7658
4720 8816 1958
5006 8538 6623
1004 9277 6823
9343 9363 5657
2609 7090 4081
6641 8909 4181
5881 8058 4361
8789 8966 5970
9311 9337 7080
3640 5388 9285
9058 9070 1052
562 1498 9383
1785 7223 9262
5481 8055 7364
2027 8390 2072
7115 8594 4072
717 1735 6350
2493 9256 4042
1566 7372 825
3165 5218 5454
508 4923 3620
2733 6705 2708
2961 3160 2923
3792 9340 5724
971 9474 3194
4711 8327 171
2515 2794 5065
5918 6573 7766
4756 4979 2709
783 3673 1610
7605 9444 97
2493 8504 9407
1493 3581 32
2627 8646 684
899 4240 1206
6768 9050 5668
4219 8189 879
9256 9461 7687
5155 8845 3726
2862 5215 3612
8403 8646 6893
4888 9080 629
2752 3094 6613
4741 5923 1548
5704 5915 4151
1721 4331 6659
7221 8829 9449
2547 4060 6441
9128 9364 8466
5850 7088 6387
2933 9233 4706
3059 7285 3172
8925 8991 5148
6315 6581 7268
9072 9308 8709
7526 8197 8190
2345 7115 2443
2705 8175 4446
2638 2813 4638
3096 6616 8992
5092 8861 6024
2743 3980 372
1735 3329 4761
3996 5950 9497
6856 7873 6057
6908 8805 4234
6975 8336 1073
1580 3176 6122
8021 9148 6832
7259 8331 1434
2783 7189 8371
1841 5516 8715
7266 9008 736
4115 8245 4165
2473 4287 5913
3656 7372 5577
8735 9336 8596
8780 8993 2110
4876 7422 6740
620 5849 8064
2451 5508 8692
5447 8641 8634
5476 5659 5280
8122 8833 3686
5367 5869 5103
7357 8405 5068
4741 6007 6524
172 6011 1501
5241 6910 5864
5945 7736 6461
4351 8407 3005
1157 4104 7472
4518 9283 7348
8331 9380 3126
624 6523 5482
5269 7182 715
164 6702 9027
8394 8806 6294
8251 8848 1235
1906 6242 5284
2878 4506 4272
5342 7048 1020
9279 9472 2913
6472 9166 7967
8414 8640 8468
3859 7888 6622
6515 8048 2687
2790 4337 7285
8079 8863 5550
4557 6703 3319
1580 3908 8247
7840 8221 2343
7400 7593 8843
1172 5049 2425
1665 9355 3039
2457 7883 2964
9178 9298 1938
5567 9500 8798
2607 6674 4029
457 489 7077
3922 7345 4536
291 520 8827
5770 9297 4793
6294 7188 821
5953 9308 393
8165 8509 1429
1621 1803 1542
8138 8415 407
6041 7126 846
5524 8031 8882
1002 7270 5939
5695 8974 7597
7634 7743 8949
1157 1604 863
1128 3852 248
2049 6026 8446
4917 5360 4768
798 1965 8972
3888 5783 7184
5088 9202 4313
5883 6465 1891
3992 6822 865
5705 7727 6214
7637 9451 4871
9357 9429 5055
2346 4002 8445
9127 9136 4936
4466 5429 2248
518 1450 5594
8162 9228 1574
5116 6126 6313
7395 8341 4762
957 2266 5587
1173 5639 1458
309 8002 7258
9457 9468 2674
4062 5312 421
5598 7220 5605
6423 8792 8535
2948 4257 206
4135 8080 4547
1198 1511 4623
7155 7769 7458
8110 8135 5392
1596 7526 5735
3584 9086 6526
1452 5789 7001
7047 8736 6579
2839 6476 1907
4728 8096 2560
688 6946 3697
5989 9027 5739
1840 7824 5205
4845 8443 7399
3491 8865 1156
8762 9388 443
2666 6805 8470
2306 3730 6922
1888 2293 999
4018 8585 175
3980 4003 651
7643 9184 4639
2343 3964 5502
8735 8940 4763
9426 9461 3182
2445 7718 6066
7457 9202 5654
3076 3943 3770
420 3922 4010
160 9332 7564
5913 6498 1814
2730 8582 6137
5643 9160 600
1196 4495 8306
1923 2528 5220
1497 4072 3759
6752 8334 1581
6336 8581 6545
5046 6834 5831
2184 4865 4556
9088 9451 9090
327 1479 2898
8233 9136 551
4389 7324 7150
8770 9281 1478
302 4197 7404
3549 4608 3741
7290 8121 407
8303 9387 4199
3024 5549 5740
4874 7335 6918
8837 9252 5820
4325 6701 2127
7867 8060 678
9001 9128 8291
2903 8392 8129
5423 6317 8908
4149 4274 3012
9362 9490 662
6546 9090 2141
2244 7046 6539
4704 7235 1801
1570 4286 3227
8336 9325 3888
2190 2732 5647
378 8628 131
1918 8962 8520
2451 5698 2905
5516 8143 767
1808 5375 474
4956 7087 2940
5784 6189 1153
7078 8948 6527
8122 8630 5091
1775 8244 9126
2843 4206 8918
5031 6189 7611
3816 4077 1587
7459 9058 7512
2519 4177 5937
7716 9295 5670
4599 6950 6507
5534 6274 5468
272 8033 4916
3593 6535 8345
5423 7194 522
957 1448 1383
7262 8077 3597
8787 9150 2939
4446 9021 4203
2559 8894 7637
7324 8468 8103
4841 7832 9055
1568 6867 5191
9449 9493 2953
6452 8631 5258
6040 8415 163
5422 8328 6627
4582 4852 374
2617 3238 5401
9007 9298 4976
7119 8597 3535
6378 8813 3847
3870 6655 8457
8362 8758 2646
6950 7261 2004
7806 7847 2997
5190 8335 455
4934 8046 8059
7698 9164 4166
1784 8289 6890
4868 8426 3745
9086 9103 7975
4955 6585 1893
5610 7663 4581
5406 8897 7425
4018 8853 888
5637 9370 4343
8982 9293 6096
4514 5016 7794
5403 9459 5417
3403 5692 388
6118 9071 4772
7636 7731 5964
5628 8219 344
7149 8913 7038
4969 6261 6995
3194 5930 4453
454 5938 2554
5795 8162 2622
3292 5407 6448
4202 8450 3221
7674 8814 7547
4913 8669 1959
7245 8232 1416
4393 6234 5764
6378 7278 2594
6325 7295 4820
7850 8089 7091
2693 5007 6380
778 1319 5703
1493 6349 6785
7377 8997 9406
4678 6607 8335
4005 4776 9256
703 2843 386
1559 8657 6380
4573 8013 8696
2480 3392 9425
8431 8924 7686
6506 7562 5076
688 5354 6088
8138 8727 6392
4305 5267 5750
4979 8466 7139
8690 9016 5560
8139 9031 3670
453 2399 5651
136 3021 8260
1057 1814 3706
9181 9488 6427
6958 8723 3238
5595 8576 2898
8293 8594 1562
2716 7428 994
7193 9296 7707
2776 5818 6646
9444 9494 111
7110 9465 3126
5752 6471 7511
3648 5793 298
5445 6224 6999
6274 7516 8230
1558 1738 4111
6019 9283 3115
8586 9456 8082
9068 9070 499
4435 6691 5861
1391 1473 8690
1210 5290 255
1457 6930 7239
8053 8467 9076
1021 2955 4388
6149 8354 2092
7333 7850 9116
3617 7282 8494
4024 7162 3342
171 3801 2172
3815 9461 6162
3344 7078 6935
5115 8517 6606
8859 9407 9357
3152 8357 6507
3794 6357 2240
6556 6800 3610
4967 6814 2276
7167 8545 9040
2481 9141 7523
8662 9497 3863
3028 6251 1033
3045 8414 6275
8119 9311 5649
2620 8793 6253
8827 9037 7695
6098 7834 8865
7707 8934 2321
3756 5625 8155
2660 2871 7698
5957 6391 6840
2844 6900 8991
3356 5500 1241
283 6528 6550
8098 8294 7405
4822 9430 4667
6359 8287 8571
1034 7775 4843
3401 7419 4297
9386 9394 3354
9367 9378 2770
436 7526 2837
4008 6796 981
5760 7008 371
1718 8065 570
887 1223 8257
3899 6785 8302
6777 8831 415
7004 7213 5696
2379 5282 2612
441 4961 4458
3211 7746 6406
7404 8357 8914
3450 4778 5451
325 3411 6792
1242 4913 4881
8595 8672 7671
5599 9078 6625
2369 4924 7029
742 6727 1971
202 7790 3182
8464 8807 7957
8176 9168 4699
5235 6059 8946
7510 9453 5999
7174 7877 6058
2791 6117 6751
6402 7141 5704
3775 3991 643
5707 7361 6660
3397 6018 2262
3243 4235 1852
4426 4780 4681
7286 8046 5603
899 3133 5108
2872 6286 7998
8323 8692 346
677 2627 7586
1238 8206 1191
667 7847 1540
3553 9235 9469
8610 8999 503
7628 9347 6909
566 1245 1685
8432 9084 2023
5887 8402 2428
9100 9290 146
8489 8773 5083
9196 9328 954
8594 9421 1716
4207 8584 3044
1553 4463 5257
216 6183 8668
2932 7081 9398
1371 3120 9494
9315 9488 1768
3131 4895 1603
4551 7576 3591
2290 8889 7610
618 2131 8033
3158 3447 528
3855 9499 3508
3683 5801 4805
690 8931 5932
4365 8757 2998
1390 6168 2568
7417 8700 9484
7694 8947 5313
8182 8419 284
3110 5146 5651
4598 7142 869
2409 8202 6800
3884 8435 1776
8154 9340 2023
7462 8082 995
2146 9211 3669
2540 7344 4748
3635 3939 9345
432 4686 3477
3997 4919 5907
8103 8857 2245
257 8666 3256
7500 8970 2089
9454 9499 2144
908 3323 1504
5487 5882 4347
3833 6409 840
6919 8927 8797
5729 6502 2453
7058 8000 1682
9160 9178 9181
1867 5189 302
7604 9067 602
112 1280 2785
5162 7895 4267
8420 8741 541
8669 9437 7663
2818 3557 7485
2415 4525 9017
1131 2957 335
8001 8384 4182
9285 9294 9002
7868 8469 1637
9033 9105 58
4766 5789 4945
4429 6883 193
7899 9338 1936
9223 9342 8288
8500 9431 5927
2008 6217 3207
982 8094 8359
879 5128 4496
6709 8183 6329
3115 5529 3136
6245 7518 3296
2177 4886 9192
9159 9263 8502
7319 9450 2097
4227 7154 8105
8591 9253 649
2400 9374 5286
5355 5994 3287
1516 4499 2461
7071 8165 7132
3572 6037 7982
7007 7582 7869
8620 8625 5597
5488 7778 5124
3078 7819 2283
1560 7622 8775
6626 8547 4679
7600 8165 5020
6994 9232 719
993 8369 5066
3121 8181 314
1792 5162 8930
6397 8582 3781
4585 8460 5532
2811 6000 333
5442 6150 2580
1234 6747 873
573 7132 5636
6433 9184 8227
3636 8323 6688
1039 3812 6018
8254 8288 569
4140 8554 4260
3889 4549 4633
8121 9107 7218
9097 9121 6342
108 9041 9394
2232 5280 373
286 3987 8808
5457 5756 5788
7728 9134 8145
4759 5410 5432
2055 4715 4480
2392 4981 7560
2996 8069 8569
4881 6181 450
3324 6392 3011
2704 4024 8822
7875 9168 2428
5645 8809 6649
5649 6342 9368
8558 8803 2962
7181 7617 3946
7870 9203 5521
6537 6646 3805
7720 8800 4969
9483 9500 291
5823 9270 2094
8120 8180 3794
8487 8519 2700
615 3550 7057
7807 9034 3948
134 1495 305
8490 8774 3144
2196 4901 1601
7632 8715 6745
9053 9431 8502
3842 5634 6296
388 5756 3576
1183 1403 5264
3854 6193 9214
8275 8582 3403
3714 5659 3059
8977 9178 1582
4188 7847 744
4433 6337 2429
2326 8241 5646
1270 1934 243
923 6263 8596
7680 8190 4402
7910 8884 1275
3491 3583 6791
4286 4915 5362
277 7862 6123
8867 8972 3721
991 3444 7933
3016 4949 6249
5013 8769 8457
6431 7657 8792
7097 8182 6192
7618 8370 8178
2374 5346 4699
5141 7195 2130
3246 9395 609
8383 9479 6113
4885 7427 6288
3654 5021 4288
1491 1909 4516
468 1266 5674
130 3231 4877
3750 8883 1590
9324 9339 6640
6118 7073 6547
4984 8062 4870
1799 8014 5148
2108 6084 7322
8302 9416 3931
6132 7808 7009
1155 9108 3505
1719 9397 6600
850 2522 763
1776 2326 2729
609 2565 5049
3182 7347 6667
3079 7859 903
5082 5618 8898
5972 7834 3559
716 5968 607
8297 8660 2220
6207 6350 539
5879 7285 2838
1871 8002 4052
3619 7734 2333
155 5160 4575
7915 8952 4938
5652 7343 3308
8120 8815 1587
7723 8780 685
8992 9014 6237
7075 7876 6197
5938 5967 2759
8169 9119 2458
4995 8636 711
3873 8691 4701
538 5127 7911
2644 7591 6241
7494 7969 6901
2014 8230 641
7563 7746 8722
2808 6615 4072
8707 8855 9066
8247 8850 2084
6280 7941 5755
2176 5574 4670
7352 8154 3765
7280 8221 3310
2514 8100 2227
7053 7386 7136
8556 8866 3258
6116 8598 2708
67 8842 6826
826 4520 4544
2185 7900 2879
2663 8535 5309
3678 7096 4741
451 6278 9026
2156 6292 7457
7171 8274 3359
9070 9379 977
97 475 5737
5603 8588 3689
7163 9004 8426
3193 7365 1403
1615 4760 6009
3787 5875 5618
7601 8734 7206
4760 5045 3273
5050 5121 6939
7225 8244 5002
6663 7702 5374
2146 6281 2353
8933 9411 3261
6621 9484 2062
2447 5754 6863
3771 6676 5978
1792 9496 3967
8303 8812 3887
2509 7936 5496
7213 7514 760
5251 9395 6783
1265 1678 3096
5165 6610 3053
7856 8455 5349
2776 3032 4050
169 3768 5895
2377 4103 3546
7253 9087 664
499 834 6649
6304 6800 4256
1824 7945 1428
8966 9301 4119
7887 9443 6845
4170 5430 8370
4811 5500 3276
9192 9314 6771
3171 5763 2016
238 3139 6685
1926 5180 5205
9108 9263 7681
6968 8203 1561
5340 8245 365
1543 3058 379
7188 7313 2437
1017 7562 3211
2932 4455 1870
1571 3050 8294
1086 2416 4941
8236 8772 2127
8995 9182 5496
2376 9491 4052
7904 8876 7602
426 6087 3574
2594 8186 2747
5836 7434 3101
4981 8658 4234
4518 5992 7
4533 6967 838
7735 9498 2539
8836 9175 4349
5168 5298 5212
1217 3856 765
3368 4664 7908
5999 7834 2694
7602 9094 685
1275 5396 7522
45 4962 3566
329 4292 2501
6338 7910 1569
4938 7226 4837
1493 1754 1063
680 6651 8197
1657 7764 3388
1368 8364 1569
267 6308 2749
2571 4922 4876
8600 9037 6673
5370 6541 3395
5451 8617 2200
2545 9496 4839
6098 8401 5329
3562 7134 8923
5161 5763 968
8831 9130 4084
9458 9473 647
1491 4752 3602
1034 2160 5369
9421 9457 5628
8554 9083 6027
2848 4845 6488
4334 8311 9306
6907 9132 1528
969 1096 4351
8768 8980 9248
6145 7035 2912
7168 8283 724
8764 9405 2991
2355 2876 8256
6806 7849 884
4809 8932 1681
8370 8581 1354
3772 6034 5958
6612 7108 550
7972 8509 6195
1762 2687 3518
5253 6727 8792
8327 8771 2256
4367 7686 5911
3081 5241 3245
5940 9396 4391
4652 5811 8879
3562 8844 7424
4154 4802 5396
4786 6160 4687
9142 9365 6811
6624 9377 8654
2598 4811 2015
738 6478 9181
4091 7220 8852
8859 9065 5089
9170 9432 5378
6978 7332 2093
3772 7618 2088
459 9129 2466
3919 7087 998
1331 2370 8823
9281 9288 6238
5452 7471 3437
3294 3364 5189
877 6802 5104
1002 8726 1410
2154 4967 2196
5629 9222 5794
7920 8405 6071
4944 9414 9049
1545 5325 7738
9355 9419 1653
7319 8182 836
6069 7891 7411
639 7923 9090
5169 5389 8192
865 5501 1148
4163 8412 9479
7116 8764 5966
4172 4338 5141
190 8738 7062
7747 8308 223
5270 5842 4529
6744 7110 6949
765 7693 309
3575 8368 4583
6443 7955 2609
3202 7681 2160
4779 7357 6189
1828 8849 535
4995 6354 9410
5036 8051 4882
4514 5437 4182
5127 6510 2934
4043 4099 489
2028 4718 3893
999 1877 7315
681 8139 8143
4866 7993 6517
1876 6706 9331
1128 3376 3358
6842 9114 6859
506 3602 6155
6167 6638 2814
438 2232 8602
6101 7065 2621
1128 5791 2775
6964 7235 8530
3718 4458 1224
2636 4650 2868
7570 8402 6639
2248 9199 5911
5177 6953 3202
7890 8606 3767
1750 6214 4181
5373 8012 3706
4437 5754 2098
9299 9325 7299
1783 7995 2730
936 4846 8618
4723 6070 8138
7136 7891 75
8016 9283 6743
6684 8232 2975
1045 3584 6874
8562 8626 8013
9042 9414 8803
3120 5378 8494
944 2847 5458
1873 8492 357
4564 7739 5983
8562 8690 4327
5571 8531 4331
5974 7826 6985
5107 9240 5334
6536 8824 8675
6108 6649 4034
9006 9435 8255
604 5229 7006
52 3768 8026
8085 8988 585
5296 9450 3587
4151 6050 7451
1184 8079 1915
249 6632 6162
9055 9280 8547
8633 8918 4490
1242 6228 2211
4196 4242 7904
6008 6476 1944
8980 9165 6903
379 2820 3958
3676 5176 629
1614 3855 7114
8862 9221 8903
3277 7807 6231
1075 8977 6003
3027 8002 2388
2487 6932 7720
1094 8180 4126
6224 9173 9168
7709 8981 4703
8939 9100 9077
9138 9470 4920
1302 6924 8774
3149 8739 3933
2094 7712 3532
5534 5767 2002
2150 3110 8254
5798 7407 6867
8199 8852 9140
6543 8289 7356
3206 5498 6967
6078 6981 3410
6467 7848 3886
6132 7930 8636
3048 7714 822
4101 9227 2555
5816 7418 2877
4678 6929 3323
8034 8869 7280
5367 9236 5554
2543 6148 3834
7974 8508 2355
2593 8583 5531
9012 9368 5301
2922 5406 4545
8287 8476 7119
3809 5490 3562
4726 8498 6432
7132 9084 416
8867 9190 9002
9218 9261 3333
4498 8314 1853
5235 8878 1147
5383 7397 9366
1877 5154 3202
9266 9419 6435
1214 1405 1740
6007 7716 2505
8041 8796 8345
7151 7557 6720
7512 7561 4820
8223 9393 4247
2960 7452 8483
8664 9164 172
6086 7394 5719
5513 8146 8949
4848 5742 3069
5762 7683 6522
1218 4536 54
5019 8245 5843
1367 2158 7586
1979 3792 3093
4520 8989 167
6495 7828 1159
692 7794 8359
2891 9210 972
6484 8792 5940
4201 7321 3891
4356 8921 2669
3190 4328 6914
2028 8320 7803
3165 3591 738
8559 8843 8599
5138 8521 9364
3541 6971 7259
7461 8031 3749
6465 8290 8686
1755 8352 4537
5310 8570 7227
7366 8439 8382
9105 9479 8476
2472 2514 7432
2793 4979 8894
7979 8175 3927
9300 9439 1434
2035 4448 3221
8087 9264 7404
2626 4153 6428
868 5517 6368
1561 2175 9211
9314 9490 5828
5024 5191 8348
3254 3522 6339
3678 8304 4728
6454 9133 3029
1979 8583 4028
3697 4913 1354
7557 8275 2163
2228 8956 7501
3142 7789 6849
6761 7424 9441
5159 6159 5954
4364 6379 3715
2263 6641 5754
4123 5139 5121
2372 8448 7064
8651 9132 4603
5657 9161 2661
5564 7544 3318
1473 2751 5952
2288 8112 592
7260 8195 379
6473 8814 5421
8255 9024 1029
3240 3511 4653
3223 7463 2007
8906 9138 8631
2319 3833 4439
1585 6005 3496
9045 9185 5702
7496 7682 8142
5277 7553 7510
6118 7268 188
7131 8068 8606
8576 8955 8271
4999 5864 7254
7486 8284 8755
519 1107 7199
8672 8690 8585
6384 9402 7243
1945 5548 3361
3201 6210 3891
5360 6895 93
414 4557 2995
2140 2991 3153
28 4526 1551
2047 2886 6597
4163 7233 4849
6423 7822 7435
7722 9372 771
3011 6022 1781
7142 7938 8642
1748 7245 6645
921 4320 4907
8105 9033 2275
2351 8545 8871
262 7678 4967
3144 5154 146
1446 5626 1504
7242 8812 7949
7412 7559 9046
3446 8591 2235
3161 3387 3635
7344 8318 6101
8560 9100 6888
6171 6221 9117
5095 9224 2449
1945 5885 3971
4053 5441 4082
7004 8663 7748
3184 6898 2679
1652 4319 2780
7422 7772 390
8202 9266 5402
7130 8061 2104
6322 6808 2744
6829 7968 5511
6085 6229 3981
8998 9011 3461
404 4601 5611
2477 7687 3394
1368 8148 9134
1146 6926 4254
1392 4972 4466
7532 8538 2109
3673 5589 152
6724 9436 623
8969 8971 6495
2055 5639 5567
764 3887 7712
2656 8203 2134
6711 8035 4081
809 6599 5292
7882 8772 3456
4251 6273 8779
5441 6197 7503
2885 6496 8494
1929 5557 5988
8954 9290 79
4633 8827 9306
454 6955 811
5107 5740 1271
3835 9158 2369
3034 3636 7706
4232 4448 6643
9026 9198 489
3525 6979 6573
7620 8686 8952
9465 9466 6664
1352 8491 8438
2974 8352 4874
6288 7101 1437
5168 5915 7122
7101 8332 6501
1382 6545 1159
2431 7881 9210
1957 2863 4651
4120 8213 7046
1234 7961 3089
4201 4643 7343
3229 9348 6162
5257 7724 1368
7849 9495 7606
3557 4180 9465
7257 7776 5559
8444 8872 6907
2991 9371 5471
8454 8938 7357
651 9350 4941
9216 9463 9384
2079 3555 4550
7315 9040 9280
4899 5046 3471
7286 8085 5819
4208 4316 1127
6134 6212 2494
8577 9122 2692
5714 9136 2434
1247 6893 7092
3098 7562 9471
6996 7758 3864
6307 8543 2093
6009 9453 2378
7809 9115 1788
1222 6188 8904
4720 8060 3489
6448 6500 408
8543 9432 308
472 3651 2351
5948 9015 5635
5982 8674 3578
7719 8890 3270
3724 4215 5749
3948 6845 5801
263 1098 1056
1266 8140 4397
969 2543 2315
3708 6422 2045
7212 9029 8407
3554 8044 2107
7477 8421 4378
4703 5607 7716
4999 5242 2544
6758 7109 7768
546 1510 7243
1297 5075 5887
3914 9238 2255
6684 7249 6480
4647 8482 8639
3296 9005 2852
4070 6289 4869
9214 9415 7912
9129 9203 3927
3707 7811 3990
9256 9320 1494
7764 7791 9138
8187 9449 1565
3859 4784 249
7217 9440 6770
9200 9227 3060
5410 7417 6663
6742 7592 1734
2469 8878 1260
9119 9408 4206
1302 6954 5360
4439 4980 2699
6739 6891 1946
1114 6768 1511
257 3511 2547
5579 7323 455
4577 8304 3481
7024 7704 6094
9371 9422 2852
1934 7185 2026
1050 1518 5768
5758 8615 5470
3316 7173 5830
6950 9332 2582
701 3551 5304
103 1860 5315
658 4536 5903
1463 2086 6896
6511 9181 3117
4226 9284 4402
7114 7559 8274
2572 4920 1089
1176 5667 1218
7734 9105 4590
7348 8907 8735
2398 5089 6783
7370 8818 5671
4571 8168 4186
1862 3611 6217
2178 6440 1941
3066 8864 3372
1549 6275 6663
1047 5160 3636
1340 8389 1095
1069 3217 1867
3817 6397 9024
6133 7584 5751
7237 7655 2100
6226 8902 1444
7644 8884 1820
5548 6046 5270
8525 9031 5446
8328 8895 7936
7254 7384 8688
2097 3407 1881
7278 8468 1110
1061 2924 7889
4548 8415 5018
3631 4674 4008
169 7506 2080
6363 7873 5272
228 8867 127
1496 6071 5184
1590 7933 1261
7628 9258 416
9316 9417 4961
8980 9300 6949
4064 5259 9051
4889 7535 339
203 6744 6890
908 1630 1909
3471 4458 8656
8299 8600 7717
3581 4073 4100
2803 9102 9155
3576 7776 4051
9022 9345 3099
5723 5869 6543
1657 8019 6392
3487 5425 7339
5378 6167 8990
3761 6511 1271
4032 6743 2561
6708 9055 6404
284 5332 1915
6373 9112 2331
2496 9349 705
2749 9059 8010
132 6032 6011
5435 7023 7269
8420 9213 7244
629 8678 3232
8335 8567 1444
7247 8918 345
7910 9404 8021
4341 5156 6532
8983 9132 8004
6354 8162 858
7591 7855 2126
6891 7436 24
7937 9013 8981
9458 9462 3227
4346 9382 9053
4226 7588 6478
2997 8322 2197
4776 4839 7318
7107 7901 1667
7321 7836 8031
4532 8575 8384
3573 7104 8098
7430 8542 5293
3088 6469 3141
3377 8164 8128
7397 8000 4872
3697 5072 6657
5229 7655 1573
1502 9449 3051
696 8654 8277
3072 3294 7903
7910 8133 3282
4365 7934 2359
8589 8846 7712
6777 9413 3002
5781 8680 4007
3879 9003 6493
1022 5488 4364
5897 9126 2871
8526 8734 8491
6836 8197 4896
106 6850 1562
7426 9229 5876
5763 7372 8677
2897 3209 3869
728 8895 5995
6390 8833 256
562 7511 6118
1352 6302 8633
296 6967 3278
4668 6129 3218
6236 6508 9467
8004 9494 6699
6554 6757 7967
3935 7910 20
4640 6776 7449
6359 6989 3497
7780 9304 3391
896 2005 7411
9421 9495 5479
2841 9062 1734
8374 9342 6910
6789 7333 4858
6263 7993 3
2765 8371 6808
932 5672 8071
8223 8511 8299
3246 5724 9357
9296 9420 4743
1388 3820 832
8048 8629 2211
8019 9165 7938
4674 5013 6620
729 5668 2131
8894 9117 4680
6142 8879 1803
1609 2087 3628
5588 6380 1413
106 1769 1770
7233 8173 112
2315 8456 1834
3723 6754 6034
6111 9086 997
6021 9297 1397
6138 8952 5929
7701 7965 7343
9279 9285 6328
7967 8626 5375
4537 4708 7007
5320 9061 3773
2047 7103 8526
9378 9497 1441
8915 8918 7975
2438 3827 2005
5851 6286 2324
7737 9423 6830
1846 8599 2576
8540 8556 1962
96 2631 7452
7839 8483 1226
4370 5437 7350
1726 6976 7895
3429 5488 2250
2092 5938 3716
1352 7180 6976
7628 8321 2614
2079 2133 4507
4836 6715 1920
8045 9347 4194
415 5803 3250
7251 8701 2578
6920 9359 3348
7465 9324 7883
4190 6836 2734
6513 7676 4805
9163 9371 8168
1180 7681 5360
7176 7307 2164
3330 4286 9392
5011 5346 8546
2658 9169 1702
8913 9191 7353
8455 8675 8171
3383 5057 7056
8349 9137 3996
1762 8029 1298
6966 7271 126
1835 2923 5057
5090 9117 8201
8125 9188 4377
6327 9494 1533
8214 8249 9094
9451 9456 3616
6607 8725 8150
3230 4260 2530
4532 5913 8785
6446 8917 2691
6275 8662 3000
2252 4401 4805
2269 4061 4289
9084 9457 9333
8739 9371 8273
3986 5275 1034
5478 8386 928
1323 7236 1163
3266 7413 9291
2160 4369 4323
5863 6046 9053
6925 8090 9376
2498 8833 5019
8996 9452 76
1475 6496 3534
3676 5733 5524
3275 3631 6666
4395 7698 9495
6119 6423 1815
1304 4067 4547
6918 8745 4259
4930 5912 7431
439 4488 8150
2581 9247 8245
8656 8804 6133
1982 4486 8006
7177 9472 4975
9048 9336 2503
951 996 2710
7223 9468 6648
4065 5992 6187
1302 3446 2813
2269 3157 3302
4629 7138 3056
6771 8953 8042
8837 9402 2183
8215 8767 5028
1506 5148 6932
9448 9476 7863
1696 3003 6211
3094 3445 5515
6492 9190 6682
8691 9240 5024
8301 9049 3211
8671 8713 466
8691 9500 6979
4055 8600 8673
4155 7780 8086
10 1978 7278
2790 3817 2727
1078 8251 8928
6735 7519 148
3213 8630 5300
6248 8456 1314
1341 6459 5594
8591 8935 5859
8779 9194 5634
8871 9324 8937
7433 8460 9499
394 5648 3635
587 6744 5438
660 3103 2449
7037 7476 6976
7053 7258 6205
495 8356 5660
5052 7895 6528
8982 9453 1494
246 2468 3211
6454 7940 8620
5539 8127 2975
7967 8793 6361
8368 8834 8864
6942 7486 6558
7243 8127 8465
8261 9346 2270
1473 7585 670
974 6337 5018
582 8851 3612
3222 3939 1999
7721 9225 811
5144 6156 2041
941 1151 1804
33 8536 8923
6163 7293 5918
8343 9030 8206
777 4977 3136
8448 8876 563
6500 8825 5397
3673 8246 2259
6788 9364 2146
2398 2581 1297
1887 4167 5618
4572 8259 2718
4374 7391 6802
8241 8482 3775
419 2214 7305
7294 8281 7730
291 794 1748
2344 6004 7368
576 2139 8899
2373 3346 632
994 2625 3202
8590 8658 8600
4077 8671 2385
7334 9389 766
2732 9476 3743
1933 2780 9154
3181 3550 470
9157 9485 9189
2520 8468 6725
3106 7928 2816
4779 7585 6850
8991 9292 3736
8808 8809 1998
9081 9364 1277
8223 9203 3402
69 8033 2487
6159 8130 2570
3416 9092 8025
7593 8951 4294
2142 6449 5260
7699 8744 3458
7720 7823 1745
3111 5376 2513
9185 9272 5884
232 617 5491
5769 8577 8796
6248 7858 1411
5611 8094 7481
4831 8204 3305
8661 9494 4746
672 6739 4789
8725 9095 6075
3273 4340 474
7725 9332 5455
538 3271 1105
6290 8776 7625
7538 9038 3558
5737 7014 3558
3672 6977 6181
9175 9373 1449
1079 3523 2618
9418 9498 6996
3791 6741 2769
2382 7971 6276
3747 6544 5486
8823 9035 1811
3022 3958 234
2104 6275 3735
7881 9063 2581
8408 8416 937
635 5146 814
5993 6321 406
5767 8534 6542
3818 8121 3621
426 8883 1105
8228 9277 7818
5737 6920 4260
4175 6516 9217
8172 9263 7110
2101 9203 1212
9094 9131 4037
7177 7628 8718
3414 8017 1523
5119 9029 3847
360 2188 5873
2831 5616 943
4215 5562 7846
5187 9182 4684
4250 7204 1073
9144 9424 2200
4963 6397 4950
3229 8507 4537
7189 7475 1704
5610 8065 1828
4364 5574 4306
4979 5423 8336
8261 8588 7455
6735 8128 3442
4326 8112 3274
6533 6968 4310
269 6912 1515
2737 6400 224
2682 5302 5917
8643 9482 55
9045 9322 4699
1818 2157 5120
8576 8763 1233
2193 9493 6506
1171 1242 4110
8916 9351 2850
416 5070 1579
5341 8763 8898
3646 8241 6153
3265 5947 3647
2698 3355 7473
7567 7719 9099
2555 8020 468
2331 2547 8899
5346 6945 8156
8141 9034 675
7555 8849 4300
8337 8437 7717
3772 7056 612
7630 8812 1258
1124 8849 784
1606 4852 3573
8933 9354 8043
7928 9161 5394
3668 5234 3741
1958 8979 9375
4170 7382 5850
2652 5006 4791
8079 9355 332
1650 7201 5536
3320 5228 1983
1430 7280 891
5696 7725 9447
3485 3633 8747
9487 9497 2618
6869 7951 5201
1022 1740 3957
8345 9270 4798
4487 9121 9352
4082 4228 6188
3374 5284 5958
8420 9311 5747
3714 5907 4168
5871 9294 4541
1097 5526 397
5759 5803 8954
4800 5377 8232
6612 9331 8672
6482 8483 7684
185 9014 1932
5760 6601 8411
6437 8164 4927
1879 4742 8299
7898 8911 406
5094 9100 15
5197 8842 5624
2434 3867 1273
5304 8732 1574
2550 8006 6996
677 2493 5013
5715 8685 7657
5530 8119 6918
2995 7204 1591
5648 6081 2097
4631 8363 1257
4352 8005 6841
4648 5034 7250
6283 9463 827
5340 9175 2525
5758 8707 7767
1728 6057 6327
867 7021 6423
883 3690 8850
5201 5661 4520
5209 9229 5274
3161 8689 5561
6521 6589 7506
5065 7318 8224
6806 8121 6134
6264 9257 5410
6408 7819 8395
5705 8281 9179
5570 8014 7396
1381 7454 6497
8840 9450 8457
8380 9348 4455
2983 8918 3079
6746 9160 3337
3713 6499 565
3540 9500 7799
3505 9320 3636
5381 9389 4027
1928 4696 9430
5541 8433 4744
4346 6838 4983
7490 7563 5849
6555 7558 3101
6593 6979 3934
7012 9144 2269
4134 5097 6145
7338 9458 5882
8988 9107 2532
1563 7604 5520
1634 7999 3410
8592 8651 8756
7874 8157 5367
3415 5238 4121
4942 5133 8503
7310 8770 8908
5332 5644 3851
3141 8561 5224
7226 8408 7268
1550 1813 6582
6156 7308 4445
1552 5017 5592
1130 2891 7617
2594 8513 8839
1437 8130 9050
101 2736 8905
4188 9260 6801
7793 7959 4306
1324 3374 2646
6887 8530 828
578 1923 5447
5571 7535 5298
5218 7550 7240
7581 7796 8997
7741 8047 2928
3202 3879 9117
5363 7535 5177
614 9266 801
3276 5386 4712
7676 9397 7760
3925 8840 7667
2960 7312 1575
6369 8061 9228
268 2247 104
865 8114 7675
8995 9083 1036
5475 8062 4437
7643 8681 1132
3875 4229 1199
4532 6579 5270
2668 7499 1512
3180 3855 4485
3358 3518 6741
7512 8176 2289
3162 6556 6216
4311 9302 8177
2536 8792 1931
7574 7953 7864
1847 7466 2615
5575 8644 2191
6663 9385 2050
4693 6363 7469
4394 5970 4437
6262 9032 5320
7182 9491 2254
6333 7257 5466
2461 6269 2329
3910 8532 2479
1883 3589 4732
5775 9039 7284
7797 8711 3036
2657 8203 2756
2190 9072 9142
9398 9411 8955
3462 9404 8371
2116 4150 9213
3685 6522 7397
4635 4935 7062
5859 6511 7336
15 5399 1946
2804 4737 2610
9195 9244 235
5624 8825 1775
3016 8570 7198
7828 7989 4848
180 3060 6545
7574 8661 8903
7546 8051 5506
4405 8374 1080
6893 8869 5101
1029 6753 6489
8795 8954 3511
7573 8708 7738
758 1758 5698
9400 9434 510
5769 6044 3682
2274 9295 8917
8089 9089 3476
6847 7386 2555
2524 5578 583
2413 7694 543
5777 7032 226
8925 9320 1979
5230 7428 9236
8876 9368 5464
6411 7339 1753
6731 7924 7695
493 884 8261
165 3179 2140
4577 8936 3037
7949 9141 6082
6750 7235 1656
2584 7478 8908
7618 8242 2431
5552 8496 3079
4877 8264 6333
9108 9403 408
6965 9262 3354
4503 8098 2781
4826 7409 3116
8029 9486 8459
9025 9044 36
5012 8180 4522
820 8064 6495
3836 4242 5002
3755 4951 4273
4698 9477 2794
8791 9241 3949
3499 4876 8865
2174 5728 1299
1604 6479 3343
8474 8912 1087
5664 7785 2459
4893 5192 2829
1903 4918 5509
6534 6730 8569
1494 2551 4617
2956 7874 6917
7381 9272 8889
2355 3219 6048
5414 6095 2923
2538 6767 3413
2383 4726 1764
1728 1949 1979
4079 9327 3098
5902 8116 241
1720 9458 8411
8623 9170 1713
1091 1939 1894
4743 4827 7423
7887 8169 8083
7643 9007 7131
3950 5717 6173
8889 9473 6015
3485 4532 556
4133 4944 8534
7683 8719 3004
4917 8721 4297
2725 5165 3286
1519 8514 4520
696 6452 9143
3567 9279 3628
2113 5895 7052
1761 5446 50
2872 3225 7558
3442 9215 7385
4929 7933 958
1332 6530 5453
3627 8619 8771
2718 4008 6034
7144 8394 2483
5882 9453 11
2434 5862 3513
4560 8951 547
3666 7318 2336
7468 8979 6520
545 1478 2847
3177 7602 5567
3739 5485 1881
8314 8723 6849
56 6450 445
8728 9494 5902
4624 6243 1455
1532 5483 1266
3990 8336 4558
5770 9078 1538
1520 2415 7897
3760 3878 2354
661 934 1214
3013 7351 8584
308 6360 5935
6846 8304 135
2767 7725 8647
7279 8755 7445
7704 8989 6709
6897 7564 1929
5496 7547 1670
2195 3281 3716
1110 8284 521
8204 8212 3345
606 4417 4350
9465 9466 3723
573 5316 7273
5426 6825 8179
2769 6455 8331
1835 4088 2201
883 3716 528
4662 6528 6743
5494 6584 3680
8470 9079 2794
6129 7817 9091
7036 7750 3900
4636 7314 5960
7912 8289 1925
8663 9429 8111
1930 9105 1238
8601 9450 6875
188 1848 390
9107 9360 1191
3755 6672 5428
3133 8147 7428
5358 9381 4114
3721 3850 7178
7440 7549 3285
2105 9099 1204
4311 7546 2191
1734 8845 1679
7100 9204 5157
5215 5795 5123
5673 8555 1463
6936 9387 7736
4976 5788 6428
596 8512 769
2435 4771 4720
3739 4710 2583
513 6355 8016
7216 8027 4566
1019 1848 4935
7323 7494 5202
8397 9297 446
4987 8887 1898
6883 9021 1679
3525 8428 605
1347 6265 697
6854 9210 1312
1019 1787 6379
4053 7618 5284
3421 4913 4611
6553 8202 4947
2645 9093 7801
5663 8720 3015
3248 6960 8824
377 728 3849
6120 8280 6538
7182 7747 6935
3774 5749 2192
1995 2793 1652
3964 7594 9241
994 2628 7219
2801 7973 4511
1135 1256 718
6974 9247 3559
5898 6666 2232
1313 7218 8841
1822 4230 8640
7570 7774 761
3112 9242 4036
944 2570 7251
7038 7070 213
3191 3516 4249
8891 9203 7038
7888 8254 2577
7739 8734 1735
3186 7596 9041
3419 6409 7352
5689 8923 8709
236 4844 9135
203 939 499
6332 9103 8217
1965 3217 5186
6711 7917 4649
2506 6889 5969
4841 6484 5344
3647 5545 8788
8673 9299 6751
6916 7911 472
1307 7615 8033
5767 8565 4476
194 4326 1410
1834 2708 3878
5064 5285 3691
3453 7902 3349
2351 7861 4489
6773 8881 516
189 7575 5435
8107 9476 5601
1358 9316 1061
1839 4181 9269
7064 8934 8756
7273 8122 5752
1520 4873 2662
665 4523 8729
7231 7450 2175
7094 8509 3007
113 6264 498
3246 5458 7398
616 3159 5608
5183 6055 2801
6838 7457 6148
4863 6747 3066
189 1050 2231
1896 7568 8881
1043 8705 6631
2650 4883 8613
401 2184 6660
634 9288 6315
1735 8429 2666
3436 4954 5246
3900 7306 1910
3546 7271 3106
4172 8852 308
73 880 6044
20 344 8212
8040 8955 8265
8261 9389 4804
9493 9495 736
2067 9103 6639
4271 7517 7638
192 7218 1303
3273 4908 6987
3932 8575 1752
3831 7313 3305
5738 7768 6250
1459 7836 1095
169 2218 9084
1836 9409 5173
3145 3854 2766
1811 8963 1446
6158 7289 1545
7552 9425 2969
3509 5250 6067
4716 6946 1196
9117 9363 6665
4706 5382 3860
2204 6401 7233
4590 9117 800
3809 4715 8834
7346 9183 3350
1295 2328 2553
2265 9376 754
7931 8254 7809
8891 9419 3366
9051 9425 2820
2061 4559 1300
6905 8949 6239
9132 9333 8311
4046 8665 3061
6590 8609 9231
285 5441 6176
3086 6058 1679
5637 9385 6638
8441 9139 848
3353 7666 2744
615 9183 88
8267 9466 4177
6666 7245 731
4359 7911 8687
2081 6250 2289
9017 9281 3508
7998 8797 1478
7532 9103 6633
8905 9447 1571
5874 8250 6652
6958 8707 5452
9393 9399 2384
7076 8004 8787
5904 6707 6459
4220 7078 6670
6361 9170 3595
4684 9035 6813
918 5009 6875
7673 7804 4313
4100 4695 6196
8278 9473 2869
228 5058 3661
4953 6147 2716
5461 7135 6246
876 4750 8077
3261 3278 6632
7858 8858 2390
6824 7490 5207
3394 3854 5068
5886 7268 1311
7314 8137 6677
4009 9472 2816
8985 9363 9449
7484 8236 8268
873 2238 3821
3282 5708 8022
9439 9477 886
4858 7860 8811
915 4664 2361
3490 7248 6833
4684 8983 4180
4896 8667 902
2739 4909 5024
3832 7994 2129
6050 7516 9126
5015 5523 8462
6597 8303 4074
620 7143 2565
7170 7982 6749
3786 5034 3935
5060 5557 67
7657 8875 1754
8797 9185 3219
8909 8975 8892
6080 7216 2959
7291 7583 4121
6515 9264 2008
40 8000 9014
3454 7538 2905
7167 8776 7695
665 5003 3456
451 4647 6446
7323 8589 9302
5626 8393 1181
9008 9086 7450
482 5466 8322
5591 7258 1447
6458 8591 1651
6648 8834 207
6125 9063 8768
448 3613 5852
5902 8334 6075
7155 7478 3457
540 7788 2953
2265 3460 3859
9421 9490 329
9013 9057 2450
6808 8027 1227
4375 7103 651
860 3003 4538
2936 5841 7864
5375 9026 2630
1844 6219 499
7726 8509 5860
7216 9335 3327
6524 9000 283
219 643 6366
7645 9274 5246
7066 8925 1797
6912 7279 6539
4841 5369 5609
7144 9388 8225
4022 6634 3254
3611 3827 4506
6032 7537 4395
8935 9227 8505
2305 8209 6957
5667 5832 5526
567 5092 2051
2150 2179 24
2665 8868 7508
458 6978 477
2154 5658 1951
6339 7318 6897
6522 7750 1036
5376 6699 2301
5724 5806 2650
4523 4988 3490
5933 8081 8156
268 7630 4282
8502 8703 4111
7549 8998 2855
1133 3976 5762
2239 8862 6088
2113 9283 1367
9099 9316 2905
6171 6409 7033
2786 3347 4237
52 6009 9293
154 6823 996
3880 4737 352
4129 8576 4755
1378 9153 7350
1347 3361 3432
6064 8268 9285
8642 9294 6429
5571 7895 1973
81 1652 1294
6561 9471 9099
7528 8154 2715
2537 8693 5349
7 6921 8347
31 115 6538
7670 8989 5642
4906 4947 1015
3386 6551 4448
5968 7257 3624
1762 5899 3622
3544 9135 257
1819 7881 9490
8643 9213 6489
4218 4650 6989
1769 3035 7019
7017 7045 5591
4527 7905 3167
7094 7445 8121
8135 8453 1690
3103 8054 7434
3863 7573 5524
2439 4338 1543
6718 7849 487
7379 8104 7398
3186 7593 8672
7459 7569 4318
4387 6507 7702
3544 6738 8125
9399 9428 9473
844 2411 2639
726 9434 9480
9099 9424 2160
204 6737 3488
5576 7953 2413
5914 6229 8125
2149 7879 2431
1436 1453 7676
1634 5752 1759
8808 9400 5445
1702 4914 6049
7150 7232 7808
6181 7792 1903
1591 6700 4439
512 3015 8370
3828 5382 6557
6771 7509 5727
2834 9121 4391
2765 2828 7286
6482 7659 2272
6574 8525 752
7193 9200 758
893 9077 4649
9481 9495 3794
6838 7389 2432
7514 7975 5332
4418 9124 5143
6260 7356 1198
268 4091 1514
8971 9467 5409
9390 9423 1203
8990 9147 5324
6765 7564 7391
6182 7788 7593
7649 8789 3347
3460 3703 2261
4740 6776 1683
5597 8554 216
8682 8879 220
1991 4607 3891
1994 7353 4100
3128 6015 7589
4627 9426 4244
9388 9490 6621
5328 6013 461
6512 9081 2431
3550 5763 2884
2644 3952 5956
7 2807 7743
4515 7958 1929
567 5496 4000
6219 7703 4874
4761 5949 6443
3954 8698 3833
4696 8330 2452
3139 4333 613
853 8219 5001
2240 4020 376
3316 6181 1378
2023 6154 2030
175 1340 3935
306 2335 501
1239 6577 3754
2627 6389 9295
3250 7543 6822
2798 8505 7592
2325 9047 2208
6480 7246 5840
8298 8779 7738
8975 8993 5936
2422 7662 1482
6856 8167 2029
3310 4159 6399
7256 7396 1647
7451 9146 3861
1162 8166 1951
1040 6189 4666
7526 8091 2649
8087 8443 4330
4992 7885 6592
1027 8751 2769
3119 6824 5403
8147 8755 5000
5208 7273 7781
2424 2862 3819
5659 7024 3936
853 4521 1185
6273 7201 3634
8822 9101 8298
3493 8728 4374
4497 9169 7288
8124 9484 7400
6118 6908 3364
3769 9273 3405
9168 9229 4968
781 3037 1130
6861 8539 629
4701 4752 530
5510 9090 8201
2705 8590 2550
8397 8577 122
4660 5053 7949
2215 4464 5183
2636 3906 1323
7125 8771 3045
3578 8663 1784
5078 7446 2836
1905 8916 3404
7618 8269 5860
5723 8444 5148
7256 9423 8221
6719 7213 26
2438 3956 9113
4730 8235 2759
909 8452 4442
432 5211 6030
7601 8999 2867
7790 9430 43
7994 9089 3093
3601 6432 7447
5255 6614 1926
8961 8978 4022
3769 5759 8641
6506 7886 5122
3532 9435 5229
6090 7838 6082
3804 9104 6981
3270 8877 1997
633 3542 2972
7233 9290 462
2796 5681 914
9276 9446 3754
8845 8846 149
7635 7979 8021
270 3083 5996
4464 6437 2272
1153 2216 1659
788 8264 2597
419 6177 1099
6489 8275 7908
5397 8558 7433
6808 7029 2401
4233 7990 8180
4805 9020 3912
8909 9304 2846
6573 7895 4203
7599 8717 1327
1239 8560 9179
2625 6469 4003
8354 8499 8584
2785 5244 8815
3740 4414 357
692 8030 5620
4247 5677 9021
4067 8025 3204
5485 7074 4618
1052 6310 6959
1916 8117 3103
4266 6882 7950
1996 5199 5974
8264 8722 8332
5156 8005 5610
4466 5397 6147
1633 8366 2076
9362 9461 295
2550 5792 676
7542 8489 3479
6047 9108 5851
4834 9185 6048
664 4598 7206
8392 8832 2235
8420 8467 337
9108 9430 7410
9285 9412 847
1771 8877 837
2210 7028 297
2619 7057 4843
6574 8054 8346
756 5928 3894
5554 6375 4760
2095 3257 2732
3915 8018 6344
3712 6200 1931
5104 8493 6605
605 2957 1377
6006 9360 5160
8446 9374 3660
5895 8643 3440
713 2086 2677
1759 8416 8073
1842 7217 1272
6586 9345 7742
6776 8538 6783
9221 9286 8450
7176 7263 1679
2057 8841 6795
7066 7924 8530
6422 8036 3840
5731 8761 537
5355 6783 2124
1045 8925 1054
8037 9371 6994
1694 9076 3044
1048 1614 783
9374 9424 5304
929 3300 859
5610 7990 3152
6070 9172 7419
1274 3265 3977
11 3832 7089
6457 9311 6712
742 1848 3503
4882 5161 7837
3100 5880 4674
8396 9080 3092
1849 4414 6857
6356 7933 5663
7784 9099 5043
6346 8488 4996
345 6340 7609
3948 5789 2346
7040 7531 1136
1966 3268 4932
6320 9500 3636
3731 6575 9243
3649 8392 1046
4458 5020 9228
8339 8361 5349
6982 7565 786
4805 9199 621
2280 3460 7132
8613 9075 1938
8007 8713 2040
6385 9142 7623
7120 7248 8823
8070 8364 1972
6412 9434 9106
4317 7503 884
3529 6551 2515
1812 3640 3149
4347 6963 7705
8768 9204 5401
188 5685 391
3411 5294 3443
3771 7809 6229
3297 7655 3530
5795 9134 6022
2502 7847 5854
769 9193 7680
2618 7853 7078
2751 7305 3610
2187 6047 7249
1794 2550 8504
4327 9258 1602
2820 5718 2283
188 9275 3843
7268 8492 2813
3593 8693 6623
2657 8140 1545
9480 9491 2513
9076 9222 5980
847 7081 3418
8305 9256 7337
2713 5922 7425
5648 7633 1638
2190 2876 7515
6109 6169 3749
3813 8694 4654
5361 9103 6746
5664 5967 7226
7795 9015 1138
6658 8612 2314
7802 9374 4220
3942 6479 3776
1755 1848 6733
6862 9310 7993
4851 5656 7013
2115 6948 8394
5458 7043 2524
730 5438 261
7892 8824 8299
1243 7799 5621
8925 9295 6556
7245 9304 3335
3193 6882 2478
8482 9320 6546
4838 6665 2023
4446 7272 6332
4697 4719 4798
5050 8874 9328
6063 7381 8001
2704 3759 6327
1278 9348 4179
9020 9444 3138
5500 7370 8604
5810 6246 5793
7482 8455 9442
902 8674 8153
2687 3981 34
7461 8000 3656
5059 8640 7847
9422 9444 5912
2966 5567 5509
3705 8665 7568
2872 5336 8913
7096 8509 2902
1973 8915 1020
8645 9321 3281
6953 7907 6553
7757 8009 1137
3447 8869 1594
6573 6925 1645
5773 6251 3486
5754 7071 332
4823 5005 8569
1365 6725 5112
5194 7107 7960
2991 3329 9214
7276 8714 2873
2858 7271 3505
3000 8868 4427
9435 9447 5456
661 9165 4020
7932 8832 5932
3543 9307 5244
697 1976 573
4717 9333 3929
9275 9367 5681
5402 6930 4392
4752 6048 6092
8757 9184 4130
8756 9375 7061
701 4395 5268
2844 4629 5776
3814 4651 8726
8041 8569 8017
4077 9024 7070
7818 8151 9425
1958 8882 7403
7337 8408 3888
1907 7381 8782
2251 2960 301
5985 8887 152
6080 6743 5830
253 5280 3601
7044 7218 4387
3878 7362 7502
5508 7231 8663
7804 8848 6210
4589 7683 4370
6621 7668 21
7154 7529 3530
6245 7346 7758
4864 5314 4539
4808 8516 8780
5221 8045 2605
8906 9188 9060
3170 7101 9295
6608 9172 4849
1688 2312 2490
6191 8828 7053
1956 2122 9496
5160 8367 2824
8264 8508 3846
4714 7520 704
6358 8792 616
5307 9024 1876
2436 4835 8368
595 4089 9068
6955 8333 1571
5785 7271 2522
5744 8091 5606
4890 8388 9479
6211 6452 3271
1818 6313 5934
837 3242 6905
1968 2827 3198
2304 5919 4365
5888 6267 2683
4030 5171 6943
1630 6671 1910
3609 7823 3630
23 9107 8045
4023 8151 3512
2067 5044 1342
7874 8443 4005
5798 9106 5751
7969 9365 2251
9229 9401 7287
483 6865 475
9267 9296 4040
4662 7076 4485
5869 7641 8807
1453 7456 6826
4914 7883 8683
1195 4831 5929
5594 6125 7326
8067 9374 5650
5027 7011 4570
5254 5994 1900
8402 9112 5328
5903 8626 3355
7887 8960 8105
8847 8884 2457
2083 2838 7214
7141 8197 4689
622 8222 4718
4862 7235 6259
7827 7843 6564
2976 7770 2923
5231 7879 5750
6526 8351 7389
5014 6348 2576
8772 8909 7237
7187 7231 78
4003 4477 7156
5035 5084 4312
6568 7007 1442
3519 5681 8345
4232 9315 6155
8780 9264 5519
4589 5645 4942
1745 8672 1861
5119 7430 7531
8860 9324 1754
6487 6508 4866
5779 8148 1086
1813 2757 93
6377 7557 1597
4710 8521 8018
7493 7686 6696
1695 8660 3314
5355 8077 3813
949 7804 4417
2726 4876 7466
9469 9473 6770
2590 2849 7016
6792 8478 3640
3444 8870 5885
2365 7029 9245
5066 6709 8659
6992 8425 9485
6588 7225 2086
5447 5904 8485
6321 8262 5455
6805 7517 6989
32 8440 4548
1711 5696 5230
7894 9040 9431
5566 7867 2972
3234 4700 2492
7466 8753 766
5003 7842 2707
3929 5129 7458
8809 9397 7018
6328 7731 7657
4224 4930 6245
1153 5507 7928
4224 8349 1785
841 6883 2181
5510 8674 6960
8380 8918 9268
1012 1099 8330
4046 7631 8838
6480 8794 1492
3909 6228 6610
294 5622 2636
3471 6594 2772
3327 5761 7594
7081 9050 7776
3947 4696 4550
5206 5960 3948
1565 4394 6347
5615 6787 7577
4673 8337 5465
4306 8624 7156
2118 6267 647
6447 7200 704
1733 4468 799
3283 7462 8019
8693 8990 3792
5208 7803 2680
7243 7508 940
7081 7765 3381
7195 7545 1843
329 4987 3953
7379 7951 5428
3119 4581 3885
6747 9198 5094
9431 9445 3629
8721 9247 837
1934 7135 7907
8396 9080 776
916 5503 8995
4127 7589 1617
971 7150 7943
1492 4905 2788
1602 3298 4005
7293 7346 8207
8918 9167 5092
8204 9052 2660
5706 9399 8211
5296 8571 6222
7251 8509 4541
9253 9379 1793
5148 7382 3342
5845 9235 6384
2974 8677 739
379 2005 3
1173 5639 8224
7825 8621 1385
5200 7011 9083
9352 9357 5873
8726 9487 5292
7533 8296 6167
2188 8557 5204
435 5580 8263
5700 6969 8793
283 8783 2452
5971 9401 1984
4991 8965 842
9156 9190 8209
3393 5316 237
6837 7866 230
3926 4395 2499
3964 8153 3887
813 4582 4286
2383 3508 7310
6400 8515 436
4146 4168 5161
4513 9437 210
3455 4033 2112
2037 5451 8075
5874 6017 1733
9070 9347 6898
1269 5376 2138
1059 4710 3470
3749 8090 1958
4524 8848 3565
2215 3751 7685
5436 8959 6708
4333 5766 7354
8231 9448 1179
4371 7236 4842
5652 7285 4941
890 5080 1970
7213 7717 1236
5639 8349 2448
912 4367 2377
6306 8930 5038
4835 9325 3844
3488 6632 1647
7341 8216 5610
6496 7401 7857
4191 4835 1972
1411 6997 9037
1757 5675 121
7232 9429 7170
2723 4054 4877
7458 7477 6012
926 2255 3704
6256 9262 2989
1810 4183 4729
8593 9340 8307
6446 8353 503
5631 6858 116
1747 4109 2084
3668 8402 1008
8911 9213 1485
423 7322 7536
7155 7439 3467
7674 9010 4259
4500 7794 4901
1393 3182 1938
1080 5144 849
4087 9466 9096
5931 9435 2873
9350 9486 1840
6850 8895 1588
673 8703 4440
3523 5875 4762
8824 9114 7758
7999 8904 8158
7628 8320 5543
8049 8918 1198
6125 7668 6575
8118 8405 3347
4128 9051 3236
8355 9002 7201
5495 8807 2286
5474 8375 5935
6951 7479 7486
1509 8062 6532
7635 9192 2586
4648 7525 1398
4969 6358 104
6379 8759 6228
1530 7907 7372
8717 8756 9138
1976 4779 58
6508 7861 2604
3680 7134 9489
7046 7390 6910
3359 5626 8042
9137 9297 2679
5803 8086 5990
2256 7057 4728
4897 9314 9108
4134 8644 5400
5990 6138 8440
2282 5778 1481
6807 7843 101
3901 6755 1198
6804 8517 3100
5512 7208 6625
9480 9496 6852
7991 8672 6156
5575 6963 5482
634 5880 8787
8704 9473 5821
8752 9024 7527
5601 7244 946
527 7661 5736
2104 2191 8875
5918 7549 6307
6585 8978 7541
9028 9460 4662
528 1463 7348
1770 7715 1092
2667 3800 1065
2366 4902 6893
5002 8278 8073
9421 9448 5742
2010 2352 520
2994 7671 5474
1875 7474 4638
909 4145 4167
7457 9172 4719
1131 3974 3489
4069 6608 3650
5596 8294 9252
7941 8313 1790
5070 5647 706
9371 9450 527
1313 5888 938
6580 8664 1113
7021 8677 5098
5807 7123 4055
3652 8838 5786
8091 9139 3466
1836 4384 704
8415 9292 8341
7555 9280 2610
4606 6342 4934
8731 8829 1192
5736 9150 6716
2120 2768 183
1105 7614 8817
6122 8953 6068
2305 2456 4842
9381 9432 3357
4751 6257 2284
7132 9435 2646
4670 7364 8002
1732 8282 4608
5982 6184 6294
948 3931 8354
3809 8388 4392
1028 5415 9072
7196 7505 4053
4756 5721 8813
1691 7990 6
3690 8785 3120
7053 7496 5782
4665 5467 5771
7928 8076 8108
817 8208 2558
2964 4055 2112
695 8483 7902
1409 3361 6454
1014 8731 2789
3300 8431 7152
9333 9414 1649
3568 4367 2440
5360 9343 5063
2129 2857 1504
2354 3649 7146
1973 2277 5104
7992 9299 3938
2174 9348 1636
2823 8464 1749
8257 8912 8405
4025 7430 5555
182 9133 1933
4874 5366 8864
8631 9468 4364
5994 6252 5375
3669 5791 4136
3013 6719 2289
7157 8807 3247
4022 4461 2959
8491 8981 9263
3176 5063 8834
6986 7051 6787
6421 9395 4668
4437 5268 6241
2612 9001 2770
3190 7282 5173
8181 8869 6110
2149 8255 7088
5567 7408 8676
1279 8249 2382
8567 8620 1968
3296 7910 2769
1817 2709 9118
9007 9273 222
3242 9239 6049
2051 5095 5921
3620 4877 1948
9098 9242 6840
6102 8392 4258
4528 5454 5751
4695 8478 720
7854 8231 378
3587 8073 365
3762 3978 7069
2962 7728 2778
7821 8263 8677
3555 8797 7695
1207 2578 4668
8174 8881 7052
3843 7768 6096
2139 3549 5579
5227 5442 7756
4930 8343 842
3075 3429 4081
4074 6856 2619
5778 7996 3662
192 4825 4008
2940 3974 7298
842 5075 1792
2086 3950 2174
8794 8851 8333
6784 8300 2862
8719 8968 756
2235 8433 7420
132 7999 2536
1622 8928 3523
5943 6306 1431
4993 5464 8421
3930 5506 7103
9103 9416 95
5975 8274 1732
7620 8435 982
5768 5854 3677
9019 9329 5760
2015 4764 6222
9147 9203 1764
5630 8853 1705
5156 8289 4735
6458 7877 3374
6049 6260 8108
6138 9121 9180
5102 8892 1241
2609 5704 2507
2313 9265 7252
3698 7137 3143
5531 7248 4415
9324 9349 5026
6007 8834 4565
2851 3832 7392
8284 8800 3645
6314 8781 3969
1795 1943 9475
3235 9465 1034
6289 8450 1721
7118 9044 6595
1284 1738 3593
2780 4079 8699
7156 9113 3316
8065 8079 5633
3241 5746 3962
993 3248 8335
2632 8219 7351
2109 2438 4056
1611 5493 5809
6000 8524 5633
6771 8281 2741
8065 8961 6090
2099 2990 8700
1688 4009 157
8120 8639 1267
6750 8766 1522
3898 4906 8868
6832 8613 1828
4461 7117 8638
5345 8758 8848
9377 9402 6438
7806 8193 4342
2054 8999 5991
1 6067 3836
3482 9170 3593
4867 4899 3311
5955 9239 379
2304 7232 8190
3933 4006 2196
4294 5777 4031
7034 7977 4589
1716 9335 9111
3775 6296 8287
6609 6749 4824
2980 4242 9486
107 5099 4821
1809 8801 7471
2414 8261 9341
3759 4790 6896
3306 5662 5735
1463 4419 6254
842 5425 4991
7135 8564 850
3083 4948 5651
1618 9036 4555
8285 9368 7700
4470 8949 2636
8183 8928 347
2098 3390 5161
99 6395 6139
2218 8066 3317
7546 7971 9196
1144 8802 8886
2610 3266 9472
2099 4175 5532
593 2218 529
5226 5626 5139
2501 9230 155
6576 9262 4973
3491 4184 7519
9005 9409 6890
9097 9453 5389
5446 6808 256
4309 4525 6437
6776 8177 4774
2969 3636 2319
5278 8148 6160
8250 8581 8143
7411 8500 3354
1372 8354 1559
6050 8595 1466
2849 6245 7181
1330 9382 336
75 7998 4389
2431 7269 460
2990 6200 3146
301 4451 3518
2992 4462 990
4225 5290 2132
6750 6990 7516
7675 8932 3722
1340 3563 2344
7282 7757 1596
9204 9307 7698
2313 2846 3467
4502 7031 5293
4513 8285 2911
6886 7679 7570
8278 9010 5595
5386 6294 4836
3297 9485 4201
3808 7418 8632
1645 7583 5097
866 3148 7675
829 5650 3442
8318 8853 1109
4893 8156 9287
3950 5655 7047
2498 7631 6497
8101 9437 9333
1002 3862 6138
1116 9167 5166
7291 9378 2813
8640 8858 6211
6505 7789 9133
3374 6411 8507
262 6192 2484
4129 5616 6490
2674 8337 3035
34 2001 8437
7149 8894 9481
8045 9354 1393
3059 4512 6067
6525 7047 1241
3145 4608 3958
451 514 5759
2330 9130 5985
4010 4200 4171
8905 9092 8699
1657 2465 5239
9238 9446 4755
4078 6830 2307
2226 8689 5423
8853 9300 3624
6073 6227 2355
3266 5181 3506
1588 5959 8106
8377 8966 5077
1983 9145 524
139 8568 4627
4575 8882 1197
5176 6322 7063
1835 2833 1219
1730 5345 7386
6173 8567 3352
957 7348 5168
5975 9371 4740
3579 4319 3206
9417 9463 9168
7644 8037 526
5614 6926 2735
939 4976 7398
2465 3904 3305
5653 6978 7101
3587 9407 5812
3735 6974 1333
6558 6582 2757
2629 4088 311
4396 6454 53
342 2068 9094
2794 4209 237
8472 8481 84
3182 6755 6018
2421 7813 9189
4124 9288 3726
7702 7967 3117
6833 8135 1434
8296 9184 5626
5072 7121 5448
8387 9455 7345
1960 8140 3555
4735 6751 2710
3352 6468 4017
6207 7932 1456
7189 8237 7686
886 9410 870
5285 8797 3897
8895 9452 7964
2726 7359 1618
7172 9073 8904
2976 5420 7739
6152 8949 7174
1523 7520 2276
570 3868 2866
6096 8558 2526
2018 8233 2714
409 4790 7076
2014 6559 3950
8709 8957 9289
5661 9178 6826
633 8473 967
7508 8067 4576
7450 9255 9190
1562 6827 1751
8559 8967 6512
8075 8214 8214
6937 8026 3817
8381 8428 466
6964 7562 4783
432 3002 1685
2289 8759 8654
7314 7460 8283
8959 9033 6756
1313 6576 5234
3965 6771 4373
9211 9350 7721
2647 6592 8218
1880 6115 9393
3472 5038 5919
8118 8718 2040
6259 6850 2644
9321 9498 292
3452 9309 9038
6133 7944 8382
7603 7789 3520
7593 8714 8970
5933 8682 1185
7881 9091 9234
2354 8541 5747
7470 7956 9495
3364 8259 1510
3891 7487 75
1339 2580 5255
2203 3566 4667
8947 9058 2974
3511 6312 434
1496 7368 6978
7951 8269 2265
1293 6611 6808
1033 3558 6120
5147 9035 6970
7379 8312 1306
9147 9163 1267
3086 5634 9115
7334 7971 6654
67 4875 6571
8045 8858 541
7924 8096 5583
1627 7756 3853
4700 9315 5422
9476 9485 5883
6782 7522 8833
3083 9230 5453
4827 9182 8397
5355 7449 3191
8679 9478 2222
9304 9417 5811
6081 9020 2837
5016 5849 9287
6810 8185 3109
5878 8286 7117
545 8702 5318
1622 8822 7447
7305 9178 8953
9436 9448 6372
7736 8875 1618
2002 8764 2492
2110 9265 4367
9488 9492 5979
3153 7462 3576
6500 9427 2145
8756 9029 1197
6186 7675 1807
2237 2684 7211
8398 9114 2104
3055 4951 915
9134 9266 2880
6112 7209 2334
130 4771 5463
6403 7966 3421
309 8195 1882
6602 7208 4188
5318 8462 4621
1582 3367 7947
7159 7296 7255
7985 8923 9249
3195 4257 7726
6778 9150 7333
9044 9052 6156
5036 7196 8312
8319 9279 2577
7836 8699 3126
1975 2786 1438
4238 8714 2623
4763 5542 6969
6160 7953 9129
6552 9357 9454
5266 6954 937
3297 5044 9366
8553 9357 5656
1148 6074 1335
8014 8414 8227
2351 8636 4445
4035 4459 308
3515 5658 7069
1004 3867 361
1580 3205 2510
911 1566 6359
9196 9326 7445
3035 3763 8824
8870 9262 2168
7760 8138 1839
6844 7950 7924
2916 6835 4121
8428 9049 7871
1822 3857 7505
3236 8622 2217
2192 3050 5325
3034 9448 6405
5031 6765 1646
4828 7493 3727
2914 7243 490
8015 8697 8954
7368 9196 6691
2524 4551 1912
8571 9132 8603
6540 6922 6776
7832 9170 1886
395 3858 4069
9167 9499 880
2177 4933 6537
9404 9484 9284
1491 2813 2605
6670 8309 443
9177 9234 7854
4037 8305 3735
4668 7281 3817
218 413 2143
4549 6451 2605
8685 9033 1876
8468 9496 5538
8063 8773 6377
1036 9487 1501
4238 4705 1207
6350 7362 6641
2113 2159 405
3812 4832 461
6480 8644 2046
1750 5984 812
5597 8879 2180
497 7599 3919
6584 8726 3035
540 8580 9165
4062 6183 6590
9221 9483 922
7082 8698 6579
918 3774 2661
37 3422 4795
4280 4832 8252
2193 7556 2418
3826 6000 1798
2396 6537 7847
6643 8515 3892
4685 8246 8540
2019 6965 5550
1541 1763 6876
5618 8479 1084
1179 6296 1842
1351 7067 4974
2717 8894 2524
3792 7861 5510
1928 4476 6052
2117 4022 8254
1875 5054 1661
4102 7636 883
8750 8961 7598
9164 9197 3160
3198 4232 1250
2490 4793 3377
2527 7075 2130
6884 8866 4160
3412 8948 5075
3531 7150 3078
5139 9274 2749
7467 8851 530
5502 7579 93
4187 5219 8083
6027 8939 367
2777 3877 5023
7327 8066 8517
9407 9444 3328
2994 6693 4468
7972 8112 5712
8400 9345 4638
7086 9291 1752
4259 7105 7324
7456 8541 2904
1307 6408 9377
761 9138 5401
1528 4254 1069
3309 5261 8803
4518 6204 9178
3067 5453 26
7856 8337 1983
503 5223 1700
8922 9199 7360
4240 6789 3033
8622 9154 2506
8301 8890 5520
232 4254 4651
1521 2230 9085
3119 4048 4008
4191 9016 2074
1186 3097 629
2143 6284 3109
2164 2573 2094
9364 9375 4943
7309 9365 2307
7745 9249 5963
7013 7179 8716
4566 5475 6870
2460 8285 5710
3223 8519 8113
543 9228 8841
3355 5528 3728
3928 5043 8667
562 666 607
5909 7100 8882
7891 8901 8608
1551 7466 2303
988 1010 3858
4687 4758 9255
8038 9496 3628
6039 7658 10
5987 7267 6025
1432 9175 4817
5309 6723 5278
4846 9445 6699
6597 6890 2958
2750 5686 2945
7265 7437 7903
9333 9379 8607
4793 4847 9209
1981 8011 1032
7730 8785 4320
5637 8361 6000
2288 9005 5699
7657 9252 3529
1183 5932 7351
7180 8506 2072
8905 9231 4227
4244 8226 1863
7409 7432 3103
7434 9088 5114
5492 8877 1780
434 4576 4048
1336 8521 1004
1283 8052 5335
7058 7410 9091
1531 8000 2033
3085 8799 1057
1859 9255 6886
4826 4865 3994
4596 8952 2445
1422 4588 5552
2015 8778 8824
5540 7927 6406
1486 4961 1654
3433 4925 4359
2880 4807 8177
4360 8049 8900
8196 9498 8012
5161 8333 3622
8155 8489 1297
6369 7919 2037
4310 5849 6080
3261 6621 6607
72 9005 1473
1499 8062 4014
2172 5260 5752
8723 8916 1614
9405 9483 498
7930 9207 2335
1350 1718 2656
4423 9147 4215
2783 8141 371
1615 7666 632
3553 5199 3817
144 5726 8701
5697 9060 3123
772 6990 4509
93 3348 1833
174 8922 8129
7920 8930 6352
3568 8839 4976
1637 3320 7903
2218 4782 1044
8850 9398 3580
2986 8054 7465
6280 8745 9287
2289 3697 6460
5641 7544 360
323 4598 4119
7240 7273 8019
8087 9372 3133
4656 9258 2077
7192 8017 2021
5046 5772 5352
7556 8141 8532
6089 8494 8903
103 3984 7440
7015 8844 8607
6124 9003 1831
9274 9360 9466
1400 2934 4615
361 1133 9182
2652 8643 271
6442 7009 888
291 3764 514
1537 7426 9414
8688 9018 6128
9039 9176 4670
2523 7675 6175
6293 8789 651
5722 8132 1213
498 4669 847
4685 9020 976
2925 8462 2647
5402 8642 1771
5404 8634 677
2519 9403 898
9030 9040 8728
8474 8537 1090
1792 6169 5273
967 4053 1145
9003 9039 5091
4160 4774 3382
1087 5179 7963
6815 8249 5602
4889 9265 656
2514 5906 683
1956 7002 9342
9224 9496 2287
8155 8828 9449
1835 8869 4869
5906 7359 7121
4107 7712 5316
8825 8853 258
3624 5750 3482
9179 9372 6197
662 3919 984
6469 8929 5085
2894 9170 4497
3981 4860 3987
2008 6860 9192
5045 7851 650
5014 6738 8915
1256 3960 7736
9348 9370 6413
3390 4972 4527
8380 8710 6541
7883 8568 9019
3339 8524 7710
484 1262 1877
3929 5066 9368
4726 8388 5144
6164 9416 519
1061 6977 8687
8433 8707 5761
8067 9456 7183
5500 8296 5821
3585 4416 8042
1956 5028 6495
5974 7341 6055
384 4420 3424
8848 9360 6560
8504 9161 6279
9 7810 7575
3691 8423 4430
4445 4775 9023
176 4208 2208
3 7817 6225
7147 7745 6335
1961 7804 86
955 2559 6986
4166 7593 6659
4129 8456 7192
6890 9327 8910
5992 9316 5171
9470 9492 7896
9298 9461 8185
8190 9134 9433
3639 9079 8048
1595 9247 1355
7229 7858 2831
2700 3751 5873
4187 4275 9414
2257 2471 3586
426 2488 5269
6961 9140 668
3372 5170 3885
5743 8872 5993
3787 4950 2069
5940 7444 200
8495 8547 8409
8374 9329 1496
6929 7302 328
9246 9489 1801
4962 5022 3339
3664 6619 6808
7641 8490 4254
8842 9233 4616
7653 8578 2763
4837 7193 480
3827 7387 8538
4190 6434 7528
6802 9190 2650
1296 7671 8769
6937 8039 756
7040 9017 4648
4092 8306 3095
8939 9434 5296
8571 8638 405
3375 7052 966
8113 8630 3538
452 2864 9105
2078 4149 6585
7736 8688 9023
3585 7941 6885
6897 8763 3823
1528 1766 5696
5773 7496 4156
1406 2851 7280
8873 9410 3366
7341 8659 8666
42 9419 3626
3677 3834 4679
5998 6210 3439
5244 8020 2823
2854 7130 845
792 1387 6907
99 3459 5982
9441 9463 4158
6453 8315 2952
6026 8103 1690
1766 5860 4356
2233 3135 1286
8997 9133 4004
8940 9416 5033
3173 9304 1562
4434 6515 4225
8256 8482 5428
7527 7980 5363
2918 8688 9303
2833 3824 7905
8873 9487 3670
4351 5104 6142
5662 7384 5136
5042 6526 7920
6302 7545 6092
5524 5582 4651
381 7809 6750
5054 6375 3903
6457 7126 6581
3335 5912 2128
5056 6955 8300
8333 9083 8842
9476 9486 6125
9076 9181 5032
4511 8070 4896
7172 9065 1788
1420 3900 7420
9467 9500 3428
1355 4100 2632
3886 7678 9452
5996 6152 5528
7706 8343 913
6682 8238 1892
7369 8842 2565
4993 8319 1195
3197 7498 177
7515 7659 4653
179 4629 7275
4810 6811 7500
6226 8652 3188
5000 5947 618
2206 2974 1772
6009 7074 4732
1299 1474 1403
2299 4108 9135
453 8083 5649
7423 8681 952
3993 4682 4577
3511 6374 7847
7319 9314 116
2705 7582 6273
7846 8620 313
2020 8799 6794
4972 7114 7101
5932 6311 3829
4785 7162 5738
8663 9114 9190
6623 8377 4421
2412 4927 1878
8971 9168 6551
3635 5785 347
4070 8285 755
3796 9070 5693
4332 7355 7975
8573 9500 2722
2676 4540 2700
8334 9170 7034
6666 9336 5366
9241 9330 1183
1513 9266 6385
5826 6948 6278
7768 8640 3041
3909 9140 9340
4000 7548 1060
4790 7460 1918
6839 7159 1264
5186 8916 9267
7478 8076 4
2574 7356 2466
5133 8598 3113
5197 7266 8291
1412 6357 1644
2442 4922 167
5551 8761 5138
7951 8881 9012
3394 7226 1347
3121 6383 9132
7394 8420 4049
7493 8708 5919
3423 5904 7620
6053 8871 288
8501 9042 3049
3525 4596 7124
2682 7175 2470
1693 7700 8166
3968 4705 5578
6828 6912 8478
3555 6508 5914
8181 8742 8829
9147 9219 7914
4236 9041 9394
4442 7653 2583
9284 9324 4001
4986 5942 948
7993 8377 1328
8082 8221 3753
826 7985 6908
4493 7820 1126
1206 7779 170
1233 1788 4510
1197 6809 824
5774 9355 2444
6827 6919 6655
7193 9064 3793
4756 7814 9012
5529 8351 1580
2547 5823 8160
6335 7987 7962
7044 7314 8785
5917 9255 1705
1324 6643 4478
1896 5048 5984
1414 4321 4403
4451 5944 7727
5370 8970 6543
1927 2978 8129
1365 8757 8831
4232 8038 4645
6574 8010 4963
6947 9391 4016
430 2680 1104
432 8527 7794
818 6650 8747
1910 4340 4064
3269 7100 2693
9130 9162 4757
4193 8587 8345
953 2604 2430
4801 6529 3823
7770 8391 6982
2461 6248 1936
1134 1531 7387
5598 6148 6031
1644 4555 3917
3261 9169 8035
7370 7496 9020
7293 7553 8571
4835 8148 3266
1141 1670 9101
8106 8397 4144
4362 5496 6849
9157 9410 5667
2967 6586 7802
4744 7795 7203
1464 2065 7599
6778 8435 586
438 3411 9449
2539 4719 8710
6326 9093 6936
2165 4609 6349
7141 8310 2823
3166 6110 4923
1618 9421 6806
6940 7331 6454
6032 8356 8458
6607 9155 4544
3230 9089 576
7768 8450 4100
1584 7388 1236
2498 7468 1817
4235 5685 3941
5878 6242 9003
8852 8895 6992
7280 7841 8867
1940 7227 2240
6952 7141 7049
7774 8183 9080
5358 8188 420
1328 8430 4228
8546 9345 8335
5934 9021 2841
7972 9007 6930
4968 6858 1155
6483 8226 3423
3270 8364 6830
9117 9274 4450
6553 7460 4515
6227 7377 6712
6712 8542 3736
2996 6321 8830
4638 4725 3840
5438 9445 5300
3611 4370 4213
572 3937 3812
4082 6844 8585
1470 4229 763
1186 3457 6825
593 5244 8828
8155 8247 6887
1982 4179 5687
7588 8319 8868
3739 5840 5348
2745 8026 1502
6823 7370 8719
4679 7791 2866
2260 5984 2478
7768 8558 7623
4074 7688 6528
238 302 2108
2448 6369 6883
3266 7199 6930
6312 7513 2482
8376 9432 8966
2611 6030 9238
2997 5008 2808
2929 4776 4658
8762 9345 8802
8441 8665 141
5852 8973 1948
8579 8765 2109
6589 7948 9185
6024 6048 2437
7703 8144 1331
1282 4461 2343
8203 9340 2523
6584 8316 7629
1124 8654 7432
7706 8166 9218
9416 9467 4559
1365 3886 588
8420 9370 7918
8145 9252 6933
4871 6849 737
3857 9167 8904
7914 9223 4738
4501 5051 8831
8194 8971 4464
6608 7718 498
914 7503 8842
2389 6856 2142
8685 9217 5983
7725 8588 4544
1958 5384 4140
6932 8257 6408
4417 5950 6117
3349 5981 6139
3455 9128 6412
8231 8288 1393
2343 2610 1367
516 5506 5948
6000 7604 749
5823 7423 5785
2379 8488 2098
845 5233 9484
5294 9042 4285
1086 6444 8359
3007 4553 7907
7019 9153 6169
3530 7721 661
4118 7689 3100
8389 8494 7144
3600 7505 2745
7151 7277 8535
8989 9124 634
1697 3323 4280
4422 6402 4112
5227 6495 1661
6272 9100 32
5131 6320 7111
4491 8157 3535
146 7677 7120
4891 5582 2675
5883 9009 8731
8059 8711 5350
8434 8842 7365
5507 9191 4330
1162 8772 3154
8839 9413 9461
2657 5183 2391
9370 9493 8779
9479 9500 8202
8826 9100 1592
2672 8739 8405
5495 9473 8285
1106 2523 5271
5996 7689 5237
1126 5305 2000
969 4457 7311
4418 8417 7471
4033 6350 3279
7370 8939 4834
7780 7824 6758
7395 9234 2224
8460 9381 1370
674 1589 845
5228 8004 7811
3973 9188 8106
5334 7507 6569
4837 8463 1115
5306 5844 1664
6202 6384 7379
7262 8595 7470
3318 6224 4936
3118 6118 4101
2739 5301 5089
8180 8509 4279
6485 8851 4457
4310 5633 4996
7047 7928 7088
2564 5722 5414
6281 9218 4605
568 5711 1687
5180 9422 54
3650 3968 7813
1868 8360 3617
630 2335 5459
8017 8162 9319
6145 9238 551
6932 7316 2257
2712 3452 390
7372 7909 1116
5860 7437 5065
7215 8927 7872
2979 4752 2013
4552 8700 1467
741 7317 6588
718 3351 731
6554 9333 1570
4443 4759 4991
8988 9054 3634
608 2934 7339
9391 9420 6580
4537 8843 1160
2849 9443 4555
9272 9321 4617
1454 5985 4802
1900 2594 4526
6335 7932 3793
926 8930 20
7831 8899 7463
345 892 3322
40 5852 1492
8561 8890 836
3619 6783 120
4813 5161 8671
2249 4531 3816
9308 9427 850
3287 9306 8186
681 3362 3192
5434 8834 2433
8668 8957 5358
2044 7119 9140
754 3736 1898
1369 4271 4563
219 346 5053
3802 8262 5781
1496 4443 8293
4238 5036 2375
6745 7571 8707
3700 5533 2840
8411 8641 2712
2850 8670 1605
4434 8908 7270
3964 4413 5623
7956 8482 5717
5890 9003 25
3232 7646 7572
6225 9045 4542
6778 8254 8854
4389 4834 1860
262 6756 1295
8069 9274 5
3315 6674 3637
5595 8646 1907
5800 9152 7137
9220 9427 8909
6419 8835 8278
3975 5480 8235
562 2412 9441
1688 9038 733
5656 5975 6575
8687 9165 6017
9462 9475 1244
7983 8541 3614
5053 8098 5258
5279 7587 680
900 5115 3078
7631 8446 6180
1078 3798 8042
3196 8265 2949
7369 9257 1485
1695 8377 1923
5858 6791 2694
3336 6970 3830
175 4055 3394
7227 9083 7920
1767 2415 6945
1909 3566 5668
3099 5652 118
9273 9303 333
2568 3164 8335
194 326 221
1826 2803 8651
2663 7705 9310
9113 9169 1646
7489 8745 6381
5606 6988 186
6105 9378 3729
7432 7721 7231
1403 3325 1638
7694 9210 9425
5907 9023 5409
5681 8220 4531
8128 9118 5217
1056 6543 8081
2363 8038 1868
1146 5478 2628
5457 8731 649
1513 6064 2433
5375 8266 3663
1240 3599 6504
6673 8682 5035
1088 8329 4520
8463 8832 9486
8681 8850 531
4846 6830 5037
147 5684 7165
6989 8511 1515
2412 3864 5440
5828 5944 6208
5618 7476 4322
3070 9351 1692
8581 9096 4211
3371 4395 4325
7733 8690 7586
6634 6988 6336
1926 2292 8995
1588 7420 7399
1341 7302 3937
463 1639 395
1630 5712 5863
2095 2724 3205
5665 8133 3831
2725 5760 553
4435 8451 1627
3223 3245 5827
3743 3745 4481
3572 8777 6335
3317 8472 41
5131 9396 474
4451 7264 8347
575 7915 7226
4882 9297 6343
7432 8781 9457
4409 7907 2866
5465 9427 3736
9374 9476 5297
1021 8675 2680
4114 4161 8466
8083 9046 2460
140 8973 2850
8641 9342 2959
1835 8474 2457
3656 7920 1799
4360 5299 2960
126 3740 9242
3637 7589 4379
668 9097 8391
5372 7756 4116
105 5384 4488
1158 9457 3945
7228 7345 5518
1466 3704 2625
6616 6819 2026
6866 9046 3098
3744 4398 2920
6430 7306 7961
7125 8680 8625
3181 3835 1906
8161 9318 5758
4019 9279 7399
5216 8653 1847
1959 2055 1443
2376 9350 4450
1613 6696 6899
3276 3362 6199
5233 6982 2854
7621 9193 4669
4150 7252 6025
4181 5351 9052
1238 7135 737
9027 9235 5985
4571 8484 2843
9435 9438 2219
580 722 3726
9471 9493 4119
5588 6967 5775
386 3670 742
829 4202 2420
6854 7175 46
5815 8677 48
1339 6461 703
2075 5750 2560
5906 6943 8523
4373 6596 526
3828 9319 1649
3034 6415 5527
5163 7135 3392
9053 9214 879
9099 9216 1787
4250 7748 2860
5276 8804 3003
6541 6998 2037
3901 5953 2246
1988 4306 4098
2642 4044 6799
948 1796 8422
6160 8484 37
862 5568 8500
8092 8828 6047
1667 5150 2803
2521 8043 6902
1971 8293 7196
7710 9362 2396
5154 8013 2747
8643 9437 7084
1258 6006 5058
7047 8495 4189
6210 7725 4674
2890 3037 7334
1922 3546 1626
6169 7136 3514
2666 4294 5057
4347 6232 1557
3264 7420 8895
7319 9205 5465
1605 7994 993
9497 9499 6428
3868 8293 8365
6795 8834 8454
5549 8240 286
4992 8200 5768
1696 4886 6677
4081 9335 8200
4332 6965 2360
5509 6438 4204
1911 3220 1106
5986 7034 8048
7874 8716 9276
7532 8378 7024
5968 8973 1485
6814 8955 8928
8325 8635 7949
8950 9333 5717
3698 5842 8767
2412 4714 4368
5562 9069 6882
2813 8890 4893
8361 8438 741
7041 7791 5214
4803 8447 3203
8650 8752 1397
3243 5069 5
1780 2569 6507
4177 6160 5889
1955 3330 7020
3246 5704 5217
4905 7295 185
3349 4398 2492
5499 9008 870
6384 6442 1362
4439 6885 5284
5199 7059 2739
2797 6529 6484
8331 9218 3479
8484 8693 780
5133 6651 4889
3887 3984 5762
6550 6572 1206
5240 6277 4285
2417 6289 3841
9455 9500 5606
1637 7190 133
4912 7503 8881
1076 4282 5331
5107 9082 7052
2517 8170 7087
9116 9294 3711
6482 9069 3495
4834 8369 2525
8758 8995 7609
4122 5179 4341
5147 6595 2413
6965 9022 8390
8638 8890 1606
459 2246 2316
9335 9361 1697
9360 9365 5804
2926 4210 3882
8082 9009 5871
9496 9499 6441
8892 9400 9352
2709 8393 2232
7842 8480 9127
1107 6473 5671
8647 8678 7325
4581 9194 2372
9432 9483 4145
2490 3671 647
1365 7264 235
1468 6522 1451
5033 5361 3513
1869 3310 6613
950 8658 7067
5338 7447 3717
7991 7999 6644
1916 1957 130
7283 7971 7834
7661 8867 3613
5923 6410 7889
6709 9354 2366
683 9289 2095
6417 6922 2854
3864 7809 5619
1084 1110 7789
7249 8036 1981
5089 6471 192
1456 2798 3937
449 9232 2344
4749 7198 7568
900 956 6185
1493 8266 5261
4158 7630 5871
9055 9495 4018
4815 7902 1394
3781 5689 3386
5484 7876 7351
835 9042 8442
4331 7366 3105
1820 4178 3011
7478 9371 2905
2834 8243 2928
8909 9288 3188
6683 7051 454
3183 5819 2750
8984 9242 1135
6148 8627 1455
2432 3360 4320
7545 8167 506
8515 8633 2135
8627 8959 9112
4316 7067 4671
6666 9355 247
6305 7083 4178
6221 6618 8578
4047 7154 8543
3080 9365 3819
3368 7943 5183
7472 7823 2116
5447 6320 443
453 6022 4562
3619 6395 2986
2655 6415 5790
9414 9429 8197
528 994 331
3353 3585 5682
6273 8184 92
2575 7833 1473
8236 9106 6945
712 5376 4306
882 2009 1837
5819 6144 6611
8072 9059 8300
7406 9373 2231
4466 8711 3720
3113 6109 5991
7120 9041 1557
5286 6568 6748
64 664 1488
3019 8932 1878
7225 8711 54
3783 7361 1593
8007 8281 5136
5472 7722 6299
7151 9398 4922
5198 7654 2439
3097 7195 2135
4306 7361 3530
8485 9192 2008
2468 7220 6180
4827 8091 2182
2012 7691 4266
6181 7334 2528
6964 6975 9416
7879 8498 5122
6506 6579 3699
6146 9035 8320
571 2931 7587
5580 7035 4948
8631 8797 6276
6680 7162 8087
1087 2431 9397
7353 8619 2588
3259 5284 1245
7080 9118 1020
3170 7877 6023
1389 2594 4985
2267 7532 4511
5867 8441 3364
803 2425 9224
7005 8398 2505
5967 8668 3843
1443 8311 8541
480 4764 2665
4388 6531 9120
1858 7854 1276
5486 8911 1140
5584 7564 7021
8104 8324 7775
3615 5428 8956
7304 8110 8707
6173 7804 5579
8828 9384 4806
842 9215 3809
6167 9428 6480
41 2750 8808
422 2233 8925
6501 9304 4569
9119 9445 1331
8367 9230 6704
4706 6005 4108
3094 5225 7887
6248 6785 4355
4068 5832 5663
1748 3716 4861
6809 7155 421
6644 7604 5521
6158 8477 801
6387 9186 6465
8434 9115 4758
7734 8685 348
9405 9483 5881
5176 8307 9033
5103 7490 5603
3524 9113 2408
3438 4686 6280
3661 4052 4899
8017 9273 4944
4258 6282 3813
5301 8779 757
6884 8103 6979
2650 8512 4899
1671 6251 7488
240 8189 5490
4749 8249 480
2171 4099 3471
7896 8682 7539
6815 7803 956
4965 8456 8000
7153 8604 8750
417 3593 7788
9291 9333 7701
5357 7423 1906
6809 9210 8137
6073 8383 2546
9390 9452 4914
5513 7597 1611
1411 8075 2520
3883 5539 5502
8632 9387 823
2097 2677 8433
9381 9485 2647
3976 7878 9229
1266 3743 3431
7601 9458 9359
8163 9177 6473
6339 7956 6335
8580 8668 156
8348 8504 6523
14 4312 5261
9193 9404 2509
5128 7863 3330
6854 8942 8005
6010 7399 8205
5347 5870 8384
6401 6653 1864
4367 7733 6794
2229 6028 2877
5078 6323 8497
8708 9171 6326
2948 9427 5114
8245 9412 8147
7709 8944 4944
4915 6856 1961
1730 5898 1221
4334 8781 5108
7615 9334 4865
3031 6450 7859
5809 6575 8690
944 6412 7834
1751 5909 4221
9044 9230 8621
7723 8131 5372
9333 9473 3071
7443 9264 3118
7370 7421 2645
6571 8719 2407
5979 8660 1336
8672 9333 3623
7205 9139 7373
201 6261 9319
9434 9495 718
2295 8210 756
7067 9213 8837
274 7774 4233
9068 9211 1168
1848 4207 6576
5437 7248 2045
9005 9039 2484
535 1156 1895
2091 9184 800
815 5655 7735
221 5311 3102
8597 9191 4248
5406 5937 1561
3181 8365 7744
6232 8856 3918
3605 5621 6861
7489 9308 5284
479 4966 8501
4629 6126 4199
3098 9377 6247
1294 7259 4858
971 4192 2897
2056 5920 8423
2249 8881 8257
2021 2167 4817
7211 9377 2679
597 2683 32
4614 9387 2791
4674 6231 2101
7088 8231 5947
2425 3422 709
7063 8750 6106
9324 9371 3949
5687 7413 8643
1970 1985 2634
2448 6276 714
7294 7583 1637
263 3978 3688
3825 9398 8616
9206 9243 2369
3723 6369 5864
2042 8658 4304
5624 8693 3518
1647 4225 2484
3590 8339 1327
34 5800 8658
1358 5893 5568
3688 9086 8821
6176 7333 4614
3722 3975 6063
2109 7524 4726
2737 2755 6282
2844 6010 7600
2845 3245 6551
4225 4797 8772
5997 8165 2566
5769 6583 1866
5293 8059 3844
8457 9201 646
3994 4319 2081
9001 9414 1975
140 7510 8951
7566 9160 8957
5968 8710 4344
5132 7699 5413
7501 8848 4997
2299 4066 8534
8948 9350 4290
1599 5270 6047
5487 5591 8346
1447 4766 2123
2998 6063 8920
2793 4359 2607
2236 7045 3351
6904 8416 7302
4906 7866 1992
845 9046 5923
7450 8213 5932
8707 8725 5561
2480 9240 2827
1503 9015 5786
7536 8933 8336
2168 6876 8460
2784 4950 2397
2674 4869 4387
7711 8219 7319
8332 9433 7690
7050 7136 2785
8702 9090 3241
6845 9243 6498
5192 6972 7957
4946 7996 847
3387 5665 6930
4670 5193 3689
8047 9415 8423
2926 8166 8343
2594 4278 515
7519 8955 7134
4942 7058 178
5330 6218 2598
6468 8024 2703
585 7858 591
3919 6407 8070
5683 9152 333
4929 7987 3369
6668 8652 5229
6079 7102 9427
2068 5447 237
7884 8051 7307
7402 7426 2035
3517 4451 958
1261 2735 4140
7045 8318 4656
1130 9271 6081
7189 7632 6630
6409 6745 5113
3207 7190 6083
7071 7268 3955
2016 2739 3921
9231 9422 3094
348 5147 4547
1785 6333 5498
8606 9440 1741
9180 9262 3311
6113 6365 9175
598 4885 4077
6505 9475 3728
5159 8088 4841
3349 3816 8014
514 1377 5450
3814 5890 7407
3242 5043 1140
8227 8947 1777
1313 6000 6350
6619 7600 6067
2902 5690 3302
982 8284 1328
4550 6539 5094
9455 9468 7171
6447 7264 4990
4811 9222 4995
1101 6185 6463
8768 8956 5896
6624 6970 3177
8873 8936 3046
4374 5628 7397
9489 9492 4746
141 3563 6208
7318 7649 6665
4231 5368 1306
3294 9162 9182
2800 3150 4123
5176 5651 2759
8935 9150 1542
6055 7091 5529
4946 5081 1669
3123 6423 5851
5892 7167 557
7986 8831 6583
6319 7780 4178
9360 9497 6791
5568 6300 6136
4108 5447 3115
3095 9457 2524
8748 9404 4800
334 6944 7459
623 6458 3243
5433 6618 6309
5336 8696 5923
9267 9365 1987
7011 8621 8331
5247 9443 661
3060 7820 2987
5025 7330 6666
2726 4622 3364
1203 7502 1046
8067 9303 8204
5294 6422 5975
6922 8234 6835
9259 9415 350
9021 9298 1064
1083 3757 1450
9328 9405 8412
3927 6210 7658
7181 9330 6047
984 4060 5715
9047 9175 875
3660 5628 4884
9330 9369 3698
5028 6948 4864
4648 5759 6746
2421 7656 497
1826 8904 9268
8066 8902 1196
5407 9488 1123
4603 6571 951
6874 7059 9105
6377 7418 5739
7826 8122 5828
4236 8273 6697
3747 4910 8672
6948 7784 8994
7544 7550 1018
7674 8028 7736
934 1132 5256
8213 8594 5704
2211 6727 3657
2664 4685 1383
8175 8795 8721
4469 7626 5585
3456 5148 1986
4557 7485 5159
5094 6208 438
5922 6954 194
158 5832 691
8152 8208 6317
2771 8616 506
9472 9475 4905
6706 8560 1914
6130 6836 8806
7251 7457 1099
6540 6724 9121
3441 5604 360
4013 5601 4486
1823 7663 1570
1377 6876 8658
4482 8542 4045
9372 9482 4809
7220 9351 7018
2686 2689 9217
425 8830 7502
4611 5249 8269
6160 7197 4725
8142 8640 3150
3513 7180 4264
1342 6048 3873
5250 5464 3702
4529 9037 1294
7324 8485 818
5838 8967 8895
5466 7421 9260
463 4065 6027
7682 9083 759
8142 8436 9384
8511 8523 7388
3958 7474 571
8014 8724 88
4529 7198 5631
2942 4153 8832
5574 7007 3030
6120 8205 4075
9344 9345 8926
2614 4349 6385
5881 6468 1126
3753 7082 6745
1768 5574 7444
3458 8530 8099
1484 6524 1752
4053 9243 7577
919 1313 691
7851 9144 6681
9432 9476 7378
8038 8417 7545
225 453 1491
7439 9139 2428
2420 5673 7922
3940 5319 5433
8951 9277 4122
2431 4119 2510
7208 8529 5626
7678 8146 6334
7973 8062 2723
4898 7326 6460
1745 7638 689
3970 9294 9359
3536 8107 879
6895 8662 6903
5442 9160 682
5004 6637 3787
6723 9384 5375
4308 6915 8544
4668 9471 7683
7846 8512 1099
768 9440 1990
1285 5054 6337
2501 8713 3217
6583 8292 8398
1767 4104 3820
7303 8671 3271
1224 4013 4990
5715 7062 2098
7640 8058 3708
1435 5672 6956
6799 8532 1227
870 6707 7445
3614 3842 5102
7852 7967 5396
7232 9056 2410
7846 9286 8614
5772 8574 4528
1864 8442 8875
1809 8452 8571
9167 9495 4805
851 1052 3103
1331 4234 7019
6763 8677 5574
67 9012 9291
936 8416 7734
237 4247 7435
3617 6915 5107
2023 5111 9180
6288 7407 577
562 1757 2386
7674 9146 2212
8196 8996 7891
8387 9355 5811
8582 9096 2542
5919 6738 959
5420 9268 6232
9212 9478 1322
5056 9009 6840
5056 7115 6753
661 8619 4491
7673 9308 6535
7331 7456 4304
8619 9141 8497
9341 9432 6859
5947 8631 3071
3530 5468 4789
2688 9269 2554
8300 8353 8555
1086 9048 3348
1681 5027 3576
1034 9174 3489
4202 8966 7283
4170 6058 3338
6201 6881 6599
1517 2623 8495
4439 4498 7938
543 7417 5465
5716 6924 3673
8507 8900 6669
2518 5417 5730
6026 7693 2903
5797 8048 3295
2979 8049 1085
6456 7111 7406
2764 2994 1068
6167 8940 6007
6116 9448 5138
8995 9110 6126
6762 9364 9483
5023 7639 8556
2936 8253 207
4586 6914 4986
5139 7155 8651
1981 7995 9405
6470 7903 8796
4881 8032 4003
4051 5223 2122
5040 5146 1343
413 8660 4972
7170 7355 3160
249 2701 2748
8014 8145 7491
7977 8371 6406
4980 5826 3516
6601 8578 876
5131 7765 7352
1941 7461 5655
3491 3836 7721
6486 9311 7201
6402 9436 995
3895 8853 1165
1588 8501 1195
3255 7938 4331
9337 9399 7823
8467 8673 1152
3878 5925 364
359 1663 3696
8041 8930 8837
6370 7296 8220
2247 5193 1327
5634 7453 1109
8658 9285 797
2547 7840 5168
5513 9195 3882
5672 7110 4550
493 3509 9301
2033 3675 6358
1939 9186 3992
2518 3079 5252
8946 9332 8153
3142 3886 5672
7182 9374 1235
9370 9436 3572
8747 8815 47
5170 6342 2715
3493 4930 4047
4402 5156 69
6651 7673 1641
5760 8149 7572
834 8259 178
993 7509 6070
1839 2981 8900
4910 6924 3558
8490 9419 2756
208 3000 6499
4399 6086 7530
4692 6382 8448
4572 5925 6843
6718 8756 1565
5186 8828 5791
8676 8771 8357
487 2033 3375
1529 2979 4707
9151 9338 3544
7249 7618 1309
4294 7961 1977
6736 8226 3944
1657 2362 9123
6831 9089 3457
933 7618 3286
6992 8344 4426
8027 9158 8606
1858 7158 7692
3109 3332 5532
5019 5118 8495
770 6792 5554
5926 5989 230
4114 4850 6296
1069 2326 8224
2824 5842 3564
7981 8840 6195
5820 7220 267
6285 6865 3567
192 8417 1506
4716 5384 2479
1643 2828 195
5967 7237 8457
4157 7668 2620
6510 7042 3627
1449 7686 4892
9081 9480 9162
7272 8156 6958
4523 7847 8469
3726 6514 589
1116 7794 7399
2218 5732 1345
2578 6650 1521
8881 9106 880
4105 6216 7064
6745 9061 840
838 8741 5515
7534 8626 7422
8355 9154 4878
2763 6284 5509
9473 9489 5808
6004 6375 1606
8314 8931 3364
5904 6959 8611
9103 9224 796
2165 9451 3720
2327 8277 789
8760 8851 4625
7648 9064 6979
6794 8892 1461
3674 5380 5800
8111 9017 8767
5177 5432 8977
7193 8786 2269
7035 9327 6166
6771 8109 6006
3236 6838 8386
5773 9302 2217
756 4512 2795
8505 9214 5067
3433 9106 5750
1343 2856 2985
4360 7031 5366
9487 9494 7980
4874 6805 3049
6947 7574 2255
6320 7841 7748
3899 7658 4889
5759 6142 4234
1319 9174 9118
5357 8662 225
6532 8068 3215
2105 6795 9443
1993 3307 4887
5236 9380 6362
6285 7865 1767
5604 6552 9163
8350 9202 6907
2633 3588 4988
4572 7221 2047
5611 8777 5526
2500 7659 1555
621 3349 7030
5440 7931 2595
3580 4830 766
6927 7525 1183
3590 3918 5130
35 4588 6882
3129 7309 5772
5195 5561 293
5330 8706 4767
3626 7819 2193
8018 8426 2386
1459 9219 6848
6677 6702 5405
8022 9191 5644
3714 4843 8549
3099 4307 1312
6875 8321 2223
8844 9008 7803
5705 6594 4114
61 6078 5646
2359 2701 1685
2771 3254 2866
7219 9155 3100
5977 6095 46
8141 9090 6844
7156 7874 4383
5515 7351 2703
6271 7622 2108
7191 7895 7558
6520 9044 1100
9005 9210 3209
7596 9413 1944
2143 9473 2741
4933 8256 5655
5337 6775 6431
3668 6397 1692
2083 8220 3965
5892 8491 2440
2950 7271 7101
7158 8617 6489
6060 7686 6554
1192 3455 7621
2315 8432 1198
4878 7719 4088
6429 7578 7743
6549 6789 7886
7500 8276 339
4429 5410 6932
3326 5397 2785
3901 7148 4677
4367 5133 1073
6396 6895 4664
8350 8367 4109
6859 8300 7069
9402 9483 9279
3943 8639 1556
2129 5995 2832
4908 7506 1461
8583 8795 4815
5311 8003 5593
6581 7736 4556
1838 4267 2140
7868 8964 5310
3960 6389 6885
1849 8463 6397
8377 8640 7194
7988 8708 3834
1488 9348 6773
7043 8521 8289
7476 8602 4039
210 9458 4815
4949 5789 3255
5707 6645 7635
4934 8307 4462
3800 4364 7538
207 6575 8988
7658 9255 4714
2934 3947 3945
1619 4675 7907
9388 9450 2596
5600 6396 7812
9453 9465 7453
6793 8755 6700
3183 6511 7248
7962 8055 1514
5480 8757 1566
7220 9103 6681
3981 5001 842
101 880 5712
3859 7030 6780
2262 6144 8144
7839 8857 2319
2282 5139 6730
3560 5765 6016
2218 5548 9241
3100 6555 1027
7237 7400 3644
3333 5738 9263
3281 5409 44
2217 6537 6619
6849 9252 5625
3280 5998 3279
3753 7156 4634
7928 9356 2750
1634 5338 8781
3401 4649 7433
2113 6308 5377
6559 8628 1025
2988 6693 6132
7788 8718 3231
3789 3808 6979
6015 7732 7937
8305 9377 1438
1725 7307 9484
1592 5705 7560
330 3313 2097
7433 9340 4117
4561 8748 1527
6937 7184 7417
6818 7616 8695
3333 3814 59
3768 4972 211
2672 4831 9454
5927 8477 2956
3893 8016 8379
6571 7099 6095
8578 8903 1373
6822 7063 6905
8127 8613 4930
6330 8859 9421
2356 5220 3553
7962 9346 561
9230 9468 8654
2534 2799 3784
8858 9014 4805
1691 5484 9182
6248 7892 7058
116 6481 118
3195 6349 2824
4903 5066 6556
1887 3497 2384
3132 5490 5289
467 1162 4556
2075 4455 7070
273 660 4905
1653 2417 490
4451 8318 4056
7501 9448 6411
4169 9308 7991
3856 6142 1929
8252 8550 4334
7837 8419 8666
6450 7764 7014
6183 8225 1650
8114 8398 5155
5386 5611 5637
3949 8021 2733
8077 8154 7402
2551 4761 2650
1135 5807 3454
6019 7734 8038
5942 8533 1779
3681 4393 1790
5505 6409 7517
8146 9473 3308
1446 2798 3554
6403 8925 1128
4436 6410 9378
1266 3944 2494
3795 7308 2414
2544 3232 3943
3232 9215 6763
9351 9355 6130
1930 3911 2213
4678 7099 5252
724 9023 595
1415 3252 9219
2517 3531 245
3863 5466 1194
2310 6921 4402
9427 9466 1435
4768 8512 5653
1402 2661 246
3310 7389 2027
9220 9235 5002
7034 8547 9384
47 1985 8363
1908 4797 4850
4082 6879 9252
3235 7439 401
8407 8436 1012
2067 3770 2055
4005 8596 2494
6211 8418 1912
727 1137 5327
7083 7235 8442
5758 7492 5318
421 2102 964
2834 6668 9213
4769 7091 5310
7434 8288 6213
4266 6246 7481
2737 8761 5644
5002 9206 5656
1036 7133 6540
382 6229 4821
6329 8385 3912
1480 2857 1608
1414 4542 8239
6817 8187 8412
4212 4778 6219
8103 8703 8192
9379 9476 4424
4017 4451 8088
8863 9059 1698
732 7829 2725
4980 7784 8362
4750 9022 2599
7114 7496 8057
6252 7706 2613
1882 6836 8329
5426 7985 6657
3718 3775 4327
5153 6809 6651
4343 5921 7018
4235 8019 7520
7838 9442 1038
4289 5846 6686
986 2448 4067
397 4937 7830
577 2058 9068
3919 6261 3677
6866 7938 7039
7546 7844 3088
7503 8154 4730
7989 8940 3058
4295 9171 8934
6487 8664 1808
4985 7135 92
2245 7772 6287
2230 5978 2674
4155 8441 7120
574 5257 3278
4262 9165 6871
6561 7854 3707
7077 7130 7367
5835 9127 5277
4007 5431 409
3706 5957 228
5819 5977 4386
6836 7068 5894
1992 7507 4831
7368 8393 8332
2381 3188 1523
7365 7425 5811
1118 8047 7374
8337 8416 4564
2459 8647 8581
3040 8852 7098
2730 5821 3744
986 8321 2891
6921 7610 7425
10 3456 7669
2982 4928 2072
4724 8204 5179
3089 3849 4084
3976 6441 5336
5567 5596 9207
155 7775 652
6189 6714 2440
6012 6911 4425
298 8165 7547
5028 6508 7040
6334 9166 2301
5991 8960 5762
6088 7959 2284
9081 9398 3012
769 8815 8501
6062 7451 270
6488 7351 522
636 5765 6206
2691 8546 4298
9210 9295 9288
7413 8285 2716
5173 5240 4199
8487 8686 5251
8674 8736 7889
5858 8246 7331
5845 6192 3478
7974 8121 1870
1959 6377 3130
9495 9500 7785
7137 9457 5486
3295 7156 7000
3227 7103 3626
6284 9006 3391
956 6189 8494
7925 9014 5045
6509 8781 7891
7912 9367 7349
1683 8424 1529
4377 8209 7427
8179 8563 8584
5804 9278 1526
7169 7874 1886
921 3169 7118
7259 8715 4190
441 8345 4214
458 4439 5733
2654 5123 8544
7429 9053 230
4779 9145 5983
5356 6528 4052
9049 9347 142
7868 8160 6769
7076 7486 3770
6469 7421 6501
7577 9189 3612
3336 4557 3783
7741 8244 2597
6006 8328 866
7907 9330 4759
8954 9020 8962
4981 5180 8017
7000 8644 8217
3451 6197 898
2071 7875 4493
2106 8181 8896
7728 8908 6386
1753 4579 2954
5499 7673 1814
3631 4400 8673
417 3195 5446
6646 8534 6300
7476 9156 7231
4484 9164 9009
5004 7675 7530
1924 7608 8679
2825 8326 4464
1745 5123 8293
7949 8992 4291
7196 8580 4226
7122 8941 945
2481 6985 5480
43 3645 5371
2858 6804 4872
3095 6409 4736
1672 3671 5191
4762 7573 4941
5322 5727 1471
7026 9466 8289
6076 8666 7376
8255 9403 8703
3161 6001 7144
9454 9469 8484
7643 8691 2769
2142 7732 1805
4485 6240 8468
3956 7088 8548
4067 8098 1988
2806 3310 1215
8261 9387 8593
5798 7689 5302
4646 5817 6505
5409 6618 507
4411 7871 8299
5590 8229 4957
557 5017 4460
50 2141 6094
9018 9377 5963
4929 9332 6060
6471 7538 4063
3637 8976 4643
4870 8127 4213
3020 3692 104
8661 8728 3263
111 2927 1505
3530 3764 6246
2707 6571 4474
5329 5476 5708
6408 7120 4480
691 6618 7470
2076 3719 9320
345 4570 8379
1332 7363 6201
1747 6105 5060
1659 7453 3735
795 2220 804
6844 7145 3162
896 3702 4878
5161 9001 1116
2461 5318 8780
999 3933 8963
7518 8286 8756
8740 8996 293
8829 9000 9271
4270 8815 6505
4106 9266 1840
6246 8501 394
7312 9076 8935
3126 8523 1039
2622 6119 3797
2749 6377 9355
9127 9201 786
6941 8883 3839
366 1647 7221
5113 7525 8561
6156 8099 8431
7771 9369 1104
6126 8209 9188
5309 9129 8088
6949 8957 5279
8438 9360 6289
348 2079 792
1500 5627 4681
8073 8906 64
780 4498 9422
3298 5002 6178
1349 5478 2086
3583 7213 5227
3084 7340 215
9177 9312 3628
9410 9460 792
5208 9129 6893
4274 5249 9194
575 5608 3238
1156 7043 6022
8956 9365 1840
8587 9217 6404
3303 6431 4360
7538 8327 6630
3396 7100 6692
4875 9437 7639
7830 8482 3584
7335 8815 6008
4039 5702 8312
4304 5982 7300
4831 5593 3148
2473 6563 1387
6936 7143 1215
387 2779 3759
3088 7488 1981
4317 4336 4070
792 3974 8141
6795 7682 7739
1517 4499 4804
7113 7637 7033
5009 5980 3269
9057 9230 8532
7046 7192 7749
7410 7646 4516
9412 9484 5631
3215 4676 6203
9289 9394 6748
1628 7864 2238
7926 8216 2271
4860 9327 435
2664 7106 8015
4970 5812 3023
4837 6984 445
5690 6419 7589
9178 9423 5906
4476 5581 443
8797 9271 2431
5470 5595 3762
4964 8858 5446
6364 7432 5909
8232 8958 6002
6667 7137 3081
5361 6159 7064
9327 9388 4628
3748 9080 2113
6414 6745 578
8692 9158 4097
9010 9125 2319
3741 9341 3720
8932 9288 9142
2065 5964 7711
159 3990 6699
925 6852 7740
3792 4077 1384
5625 7438 4781
1991 7896 365
3905 5512 8370
489 5024 8511
9240 9424 2917
5767 5885 729
6349 9462 1776
9359 9374 9210
1132 5293 9015
1970 2845 3075
1516 3122 6620
4758 7064 3596
4988 5642 7061
9106 9283 687
4279 5135 3015
8972 9263 8980
539 5959 1602
9207 9447 2679
6019 8638 2895
8525 9035 9028
2062 9265 7991
4995 7053 5861
9287 9366 9357
8568 9273 6127
7351 8144 2543
1345 3091 4474
5852 6073 2280
5543 8877 3746
4447 8263 4557
3836 6815 3631
3671 5567 5843
4147 7298 4825
7559 9080 5277
6144 6375 9110
8039 8526 2279
9496 9499 3866
1312 5329 4042
627 7932 1876
5641 7551 3654
5967 6889 2665
3061 8607 2008
6528 8595 5026
7456 7855 8031
901 6559 2629
588 2574 9093
1442 7946 6239
6931 7280 713
6451 9206 7070
2656 6687 2356
2527 7604 5207
8285 8636 5413
933 3321 8942
7593 7863 5589
5986 9299 5262
2456 6885 7351
2847 8639 8431
6487 8820 79
474 9319 3788
7184 9167 7758
2394 8205 2185
1430 3713 8847
803 4392 4616
13 4393 3457
2398 7506 3331
9091 9177 8298
1767 8556 463
2247 6195 924
8955 8968 3379
6711 7814 6772
2870 5722 8133
688 7268 6497
4136 4566 8176
7943 8688 2503
4991 9169 3932
3302 8687 924
8176 8558 6178
5706 7821 2650
2758 4781 3590
2244 7645 2355
4707 6820 1774
6711 8933 3946
2239 5714 7635
3412 8454 9034
8372 8884 6189
6238 8296 4140
288 8463 3859
5661 6308 6904
7206 7735 326
4976 6357 4437
7700 8852 9060
7331 9305 951
105 6617 3277
5400 9313 6290
7706 8836 9165
6557 7610 2734
8243 8420 4414
3403 8547 3782
2430 6353 4274
6343 8206 1755
7497 9404 2551
4131 8201 7705
6269 8562 4665
3987 4125 5650
4504 8623 405
2497 9399 4294
5875 7265 1700
2721 8207 4749
7686 9073 4593
6717 7825 2314
1709 7070 7233
1576 4799 2326
9043 9468 3137
1733 5870 5057
8847 9108 2387
3210 3877 8563
2995 3900 6124
3090 5636 6518
595 3478 4749
9322 9425 1414
1152 8482 7497
3688 9464 2379
2697 7087 7920
5395 8566 2444
7631 8348 3395
5792 9279 4116
7180 9314 1229
4573 5552 1428
3096 5345 1737
9139 9447 8541
5502 6866 3837
8043 8896 8523
6920 8068 8486
5241 6116 2550
9188 9346 1172
9261 9293 3850
8067 9323 2427
5690 8783 7203
7483 8077 2741
7592 7933 1175
1906 6853 4223
5154 9380 5414
1001 8256 2795
2946 6803 1541
1369 1590 5743
4666 6711 3360
9199 9316 3590
1302 6334 20
9102 9148 8882
4099 7942 5100
1703 5710 9069
6256 8033 5678
5322 6809 3657
7859 9381 6189
8139 8205 7516
4637 7983 81
7226 8216 1252
3677 7472 769
1802 8891 1970
2492 7813 5912
7894 8806 7665
6472 8474 7026
1003 7399 4284
374 9384 5077
1772 5143 4205
3931 8122 1079
5660 9322 7126
9410 9463 5137
8006 8937 2529
4487 5561 453
1987 2312 5335
75 1981 6273
1790 3924 6976
9244 9496 5882
1091 1282 1209
1526 8522 3058
8509 9152 7447
2450 5105 2918
9132 9257 4714
2879 5238 8963
3443 6772 2131
4363 6285 1922
870 6332 2699
7108 7937 8075
4621 8583 1922
4000 4482 5095
4325 7954 1960
6703 8420 7211
5565 8132 4512
1285 9263 1379
5215 7517 8073
3457 3495 4437
3347 8725 2943
451 4682 2297
9436 9465 5538
1065 6177 8844
7734 9262 2239
4194 7477 9384
8903 9074 6234
1530 2671 3999
4202 5279 2595
3899 8496 810
4808 8452 1220
4345 8613 995
3022 5919 1182
7636 8465 5080
1114 1227 3936
1131 6858 1890
5002 7929 8011
8934 9073 9491
9425 9483 2182
6246 9197 2326
6552 9249 6674
8878 9342 6795
3174 6474 3587
332 1822 7765
6107 8400 7146
7623 8681 3214
6370 9442 6629
2676 3339 8059
1580 4016 6293
7151 7720 6542
1838 7170 3070
2147 7179 325
4099 7617 6184
6922 8403 4932
8792 9372 9118
5911 6325 1819
9307 9345 8029
4975 9340 8982
3458 5769 2598
3382 3412 1646
737 958 8560
5295 6943 9341
3082 5396 3933
2094 7709 2310
6811 8499 5195
5672 7959 3772
473 2180 5267
8086 8299 3403
4798 6841 8948
708 5338 4232
5145 6715 2726
8331 8500 5240
5641 7280 8614
1176 6776 3402
2110 8545 5925
5876 6911 7585
2394 3044 2288
2443 5862 5287
1971 9248 8242
7709 9341 6881
3050 6831 7789
7253 8714 1613
6031 8956 5298
6078 7220 1809
8880 9456 7204
4980 5919 1029
7766 8543 7777
4649 6468 184
2664 3241 7281
8975 9426 9491
1106 1994 4405
4843 7832 4645
5186 7633 5471
8611 9500 580
4478 8665 1051
3237 6342 5266
3455 5812 8364
985 9138 2403
7351 8970 9283
4395 8219 2470
7780 8130 8874
9007 9336 8957
6790 6796 1630
6623 9394 1610
4054 4104 688
3950 7256 2783
3794 7053 3398
5354 8420 5767
3511 7725 6968
9397 9435 3376
6611 8024 5109
7078 8919 6205
3993 8690 3565
3875 9270 4346
2148 5047 7131
6204 6589 2367
893 4901 5868
1845 2895 2610
4000 5488 6077
7881 9480 9171
1087 3524 8042
6980 8255 2443
6277 7697 7753
7727 8745 2280
1623 4905 4972
6872 8058 5896
6744 8815 7196
6076 9007 7087
7822 8787 7481
9197 9416 7264
4256 5197 5590
8252 8742 6991
181 9160 1794
3984 6072 3918
4437 4965 6692
5224 8092 1106
3662 7460 2984
8370 9206 3495
2903 6459 2751
2037 7295 7608
2705 3077 5690
869 2531 7900
5956 7582 3285
7635 7987 5613
857 1094 6818
9382 9492 1468
4377 5288 744
5442 5980 8348
7316 8954 3363
7107 7634 4376
6944 9300 3655
4836 5130 2521
5576 6399 3372
1944 6806 1420
2148 5262 8418
4058 7921 637
6543 7161 9173
2432 3927 7090
3297 8372 7430
2144 5657 7632
2817 8706 6425
1075 1618 6437
4571 7102 9128
3359 5474 403
8292 9115 1450
3701 4703 6091
8441 8796 6544
2931 4234 2623
560 3977 7426
1174 4045 8741
8494 8536 2540
109 5659 6789
819 4986 4768
683 2512 8380
8624 9347 9006
7510 9439 354
8270 8302 3245
4970 5793 9128
5808 7404 3254
2573 5568 2669
4112 6576 5361
4444 8876 7216
2221 5132 7546
1088 7906 7224
7110 7746 5118
502 4114 6169
8213 8263 833
4534 5323 999
3252 8860 8346
5580 8774 1600
6645 7396 883
6476 8547 6749
390 7874 5871
3132 6923 3268
3471 7209 6823
1299 9448 4763
7284 7551 707
2171 5407 7735
7296 9251 5507
3281 6337 5536
6278 9337 4553
4292 4712 5187
2209 2318 6725
6235 8062 4814
8848 8988 7279
8358 9464 1099
9208 9466 4091
6518 9367 5795
3990 4492 4271
7227 8053 2801
875 8398 8965
4057 6100 6426
5564 9492 3177
3193 5006 4354
3312 8769 4608
2820 8696 8064
5357 6336 2743
1253 8494 3015
1126 2240 3890
6102 7534 840
7293 7618 4406
8018 8140 6877
5161 8000 5090
284 4579 7041
3248 8112 7744
8170 9064 4267
6620 8861 7229
3555 6068 545
5106 6996 1784
1297 3102 6717
2750 5705 6874
165 8395 3375
7990 8897 1739
8654 9104 1551
8749 9490 3243
7295 9236 2118
2087 7752 1894
5732 9473 6516
1501 1555 434
5310 8611 4973
7900 8537 5628
2539 6457 7017
216 6652 5579
9151 9290 2807
9178 9355 7265
3305 6010 4712
5698 7702 8929
6958 8017 1033
9034 9167 1509
22 6582 416
4150 9374 3120
5774 7204 3902
9323 9431 5522
4474 6874 1770
3585 7926 5972
5766 5990 4175
2941 9364 4687
3054 3731 7788
743 7416 6620
351 5752 2900
3585 7900 2404
9492 9496 2743
5012 5402 3649
5328 5814 6582
4425 6506 9069
3262 6677 7015
7898 8445 2464
5820 6979 5979
7944 8385 5679
8869 9358 976
4988 7974 1820
2274 9042 232
1082 1405 6107
591 6044 7641
5805 6259 907
7539 7898 7196
2113 5517 236
3557 7453 9328
7029 8423 8322
6313 8315 3430
8942 9422 4733
3465 9001 6132
7964 9083 2813
7315 8616 3572
1240 3055 3075
9492 9494 3528
4998 9373 303
4663 9273 8877
3899 4406 2032
5479 6756 1722
4177 7291 305
619 7968 4446
467 8890 5490
5131 6265 1881
5 8101 8969
213 3132 7025
8365 9493 5097
1952 2937 1482
1772 2571 4220
7208 8491 932
5195 6578 4750
3530 8259 7068
8925 9445 4125
162 7516 5370
6710 7730 6145
618 5500 8713
5572 8228 9245
9189 9479 5160
5625 7467 6573
5603 8557 4786
1253 1342 2391
5129 8893 5056
5533 7210 7268
343 4820 5003
9313 9408 9292
8722 9374 6426
5948 8673 5135
8159 8784 3003
2550 4874 4478
2137 7227 6564
2471 9191 6402
3387 7200 8920
6890 7286 5163
487 5993 4060
1454 1935 9420
2021 7868 2047
4463 4776 6147
7394 9385 2116
2873 4493 1426
4075 8254 4446
3975 7513 4616
2136 4216 3698
155 3967 7878
5575 7994 2438
6257 6769 4065
6444 6891 2474
3200 9017 902
4595 8944 2055
7851 8491 5092
3459 6047 8802
8695 8737 5431
6396 8829 867
2583 5405 3990
5154 8902 6784
6034 6804 5319
1463 5417 3283
391 9015 37
2798 8874 5596
5360 5735 8793
5421 7246 5828
7772 8088 3169
6913 7852 4803
3288 7405 8509
6983 8493 6067
276 6840 1748
239 1610 7045
1286 6648 6424
4814 8921 943
774 4318 8712
1263 2321 9056
554 3907 1438
8516 8653 8927
8187 8517 159
5727 8777 7150
8748 9099 6664
3848 5592 5207
2386 6967 5599
8014 9497 6701
8047 9170 7004
9461 9479 3801
3646 8593 5274
7642 8481 4880
5848 8090 5527
3479 6737 7496
230 7575 6490
923 9228 7306
4904 9062 8689
5721 7385 4780
6022 9389 8421
4850 7659 7363
5104 5828 8169
5968 7515 5546
6921 9050 5507
6323 6387 2705
3092 8157 6149
8241 8503 7426
1747 5386 3788
9294 9479 4006
1204 5670 5555
3370 4369 7700
4275 8989 2731
1081 4921 4052
8023 8107 40
9351 9442 2850
6533 8436 3424
136 3282 7822
5145 8864 4083
7878 9306 8418
52 8002 9481
3958 7548 4761
5435 8125 2096
8210 8274 6923
6987 7803 4772
132 1024 9114
2969 7658 8037
2828 8525 5771
5417 7177 4469
8253 8539 8848
7748 8828 1363
916 3635 8270
6719 7941 8731
1300 3373 1652
1014 3506 8926
2146 3741 1199
3687 4504 4064
7280 8688 979
9404 9432 766
8861 9086 87
3856 6832 1741
5424 8293 7578
8457 9164 2425
9136 9198 6655
8948 9451 3301
4335 6548 6588
1907 7945 4373
3889 6396 2774
9254 9401 1946
6870 9020 1158
3957 9227 8672
3397 6301 2040
248 869 2231
3695 9080 7221
6901 8359 8391
7148 8069 9238
4509 8493 1375
1297 9139 691
2102 6708 4975
6123 7691 8580
7622 8466 2262
2669 4646 5806
5475 6414 4499
2734 2899 2799
8429 9029 7683
5076 8478 4926
8371 8560 1997
2426 6885 8243
615 5404 2792
4743 8996 7571
999 4195 3083
3633 4549 8410
7090 9160 8109
1513 5318 848
2563 2640 5967
3835 6514 3092
4752 4982 2558
2385 7490 8469
128 3471 1798
472 8461 5319
419 6652 7110
1766 8065 2024
796 6839 8381
5419 6005 8852
3917 9428 5440
3745 5399 7389
320 6417 2712
6500 9488 8363
2328 6901 6321
1157 2981 7549
7362 7917 2756
7821 9125 368
3356 8389 5976
9156 9257 1445
6800 8052 2239
5059 6835 7065
5296 8459 4114
9305 9495 46
5135 8855 8069
6638 8085 7383
6956 7423 6722
5318 6769 744
378 7544 9307
5147 8321 888
3696 7791 7683
5744 7409 2807
5705 6253 752
5584 8423 6668
3026 6721 216
138 9274 8589
1128 2505 2983
6360 7546 4897
3920 6087 9332
3353 3479 4949
3114 8526 6740
4750 8727 2131
5962 7667 6650
3151 3165 7324
2699 6450 848
1861 6706 4619
7291 8692 3538
436 5216 51
5726 8900 1438
3418 4921 1375
3622 6406 4745
2824 8025 2627
5214 8334 5903
7616 8150 3348
6921 8291 6957
7607 9397 4119
3378 6795 8822
1497 3168 6439
2728 3929 2114
2973 3085 5950
7187 9219 1411
1467 4356 1224
4661 6432 3941
7809 9036 3101
3198 8875 569
6966 9201 5780
4739 5527 4492
7562 9234 2534
4700 6488 2251
5023 6762 8387
7932 8345 2100
9138 9329 3178
4076 5491 6456
8769 9363 2413
6402 7918 6205
8737 8798 3016
6322 7948 2884
2967 9091 4013
8863 9001 9465
1305 1710 6266
5476 7823 3462
7532 9267 5919
7062 7263 1625
3971 6700 7686
8685 8738 3494
5978 8339 4545
6389 9046 6040
6285 7849 4353
4775 6769 3241
1529 6216 8271
8896 9354 8194
9176 9195 3841
2752 7178 5313
1039 8933 1211
3654 6601 5726
7363 8458 4935
7206 8684 5887
5416 7749 7209
3555 7195 8793
6887 7586 8044
2213 2836 2376
3135 7827 2225
6962 7344 6286
3881 5813 6667
9371 9455 7155
7818 7894 8236
8345 9108 4900
5630 8863 8590
9352 9494 3524
790 6096 6334
7748 8894 2884
4590 8727 6
3619 7576 2539
8823 9216 3987
796 3559 8951
1435 4946 4410
2307 8383 1082
3264 4918 8266
7040 7981 4278
6630 7414 1387
3491 4300 7148
9035 9324 175
250 9098 2546
6537 7629 8587
9130 9433 2738
7832 7880 7505
7632 9487 5193
94 6075 2385
8597 8615 7561
1200 4017 262
4307 7951 1278
1492 2871 1408
911 6471 7834
5771 8382 2926
1494 9323 6599
5804 6237 2258
4514 7602 7699
5144 8489 1068
3098 5763 6500
286 9453 6445
5318 8881 1743
4502 9239 6307
1194 9092 7325
2430 5702 4413
6421 8958 5858
9291 9310 8852
2785 6447 4255
1155 6422 654
1446 1824 7683
1448 4761 1931
8750 9094 3744
9454 9489 3343
6586 8880 4986
2455 6751 152
3274 7412 6783
1953 7660 1667
1439 2147 580
7778 9215 9176
7930 8112 4856
7289 7517 2569
242 6245 2785
4336 4619 2540
2508 5522 7917
1178 5030 3489
1447 3747 3846
2987 6715 9404
527 3948 6816
383 6139 6829
8235 9080 2775
8537 8668 109
1016 9110 3515
2061 8237 3786
1648 6555 2179
3497 9254 6577
1135 2338 4461
5579 6101 101
1472 7887 6661
4903 9029 5372
4889 5043 6969
8263 8954 6861
6828 8891 1606
1797 3216 6372
5218 7430 2681
5106 6658 7606
6776 8061 4343
1671 5360 4880
38 3527 3551
8617 8771 8135
7478 8610 8999
7980 8307 9269
8993 9449 6959
2877 5039 626
7835 8533 3238
3424 7255 2249
4173 9447 2733
2762 3300 2810
844 6321 3390
7892 9467 5937
3547 5516 7072
4274 6534 2048
6642 8604 2670
7728 8055 4692
6450 9154 7956
3948 8927 7953
7666 7773 3787
1995 6485 5401
4522 5441 880
5627 6607 8301
1178 5605 5767
766 6941 6517
1718 5530 5596
8343 9434 4606
7881 8202 8509
8563 9413 686
6809 8688 3472
246 5043 8376
2633 5572 3233
5564 6651 6568
6052 8662 570
2329 8748 4256
2459 8923 2581
7707 9369 6421
7960 9026 3839
3625 6492 1386
2997 5081 6167
3109 5444 5951
870 6094 1304
9361 9463 9136
4038 5243 6779
570 6913 2748
5431 7782 4490
6724 7778 9162
6092 6977 5357
3894 4459 8224
1522 8642 5487
9374 9464 2892
8259 8417 8033
7735 8059 3860
2431 6793 4788
386 3936 6304
3497 6122 2397
6658 8448 816
8143 8898 2643
1032 1236 2980
7154 9352 9388
1018 8584 6407
4750 4894 9031
2838 4504 5098
5298 6143 3364
8605 9214 316
3989 5707 3437
8971 9091 1752
3633 9270 4815
4222 4551 9092
8658 9149 3724
4897 6355 6176
5687 5857 7813
8181 8775 2096
2775 8688 1607
7096 7347 3453
8682 9012 3583
7862 8532 1083
4721 8237 8268
4714 8951 5094
8621 8737 1525
7306 8989 2969
8992 9224 9485
2209 6881 5477
3576 6371 4752
8794 9370 1495
2078 2442 2927
6219 8377 5481
1929 6524 4608
1130 5757 2085
7340 7473 6318
2601 7407 7253
1878 7434 1888
1932 9276 3758
654 4647 4378
509 4023 4100
2914 6103 8584
3503 4445 6394
1233 8484 4486
5365 7040 2201
9224 9237 1105
4523 5313 6302
1233 6349 61
3005 4987 6026
3679 4696 5839
5880 8522 5896
8323 9149 4362
5227 6070 596
8684 8713 880
4603 7309 6853
5728 7238 3791
5374 7315 6057
7350 7524 7503
2550 2622 7421
4761 7539 4340
38 4659 7791
1134 4953 6385
7438 9359 1744
6112 7817 4980
7210 8454 8187
6192 7127 5202
4436 8295 8828
5206 7202 8849
9417 9442 598
6337 7169 4216
4208 4308 8665
2236 7242 120
6823 8810 7722
6379 6926 6409
418 4946 4710
3702 4677 192
8773 8777 6427
7620 9458 3704
9383 9443 2209
6225 8139 5321
6807 6987 9160
8911 9049 6096
5234 9138 7434
6202 8310 2101
6016 7919 6827
6898 8463 3174
1874 4236 367
6358 8271 1912
4784 9029 2263
8012 8847 4053
4755 5558 1968
4307 6505 7893
9186 9451 68
4000 4202 5093
3676 5360 2930
6377 7319 8977
6317 9382 3159
7506 9478 7167
4347 8708 8556
3429 5754 2656
2316 8978 1374
5039 5257 6798
7488 9045 4315
6797 9267 1106
5827 9098 4967
2908 6684 2312
745 3782 4284
536 8934 5631
2804 4002 1270
5373 9301 6098
7714 7921 6347
9058 9282 4375
6693 8873 5088
4629 9180 5724
7249 9196 9227
1028 4736 1172
6120 9069 8423
6977 9106 640
466 6836 5747
2384 2426 9009
81 9189 260
1602 4055 5815
5802 6694 8835
7969 9490 2338
4791 5593 8882
3245 8104 8758
8624 8892 4342
7323 8390 9197
7257 8534 583
8054 8308 82
2113 6139 4162
4704 8668 2223
7399 8538 3428
8500 8891 4994
669 866 7897
4882 5230 7782
7540 8194 8802
1922 6547 8021
8712 8944 7393
2267 8614 4015
1723 8490 4227
5237 6178 6127
183 5817 6678
5978 7303 1077
5537 7578 5667
1234 6527 7642
4855 6068 5640
1748 6679 4233
650 1733 6590
5207 5550 6511
5373 8112 8567
8321 9476 2005
3078 5392 8414
5245 6060 356
9185 9403 9110
8933 9498 574
441 9067 979
794 3291 6692
8703 8930 4843
8623 9291 5679
4598 6705 7442
3971 7026 784
2471 3411 7110
516 6714 4322
1693 8046 4636
4377 8797 840
1007 5836 1172
7169 8509 6656
9067 9076 3735
7764 8478 9241
6850 7502 5485
2815 4286 5872
3385 5939 6126
3415 4422 556
6666 8859 2821
3192 9084 72
3816 8297 6876
5926 8510 1372
118 1237 9221
3668 7063 8442
3446 7856 5105
7530 8951 406
6081 6884 2873
2670 9157 7243
3004 6853 7437
7481 8144 8546
6823 8310 1409
3196 6223 5404
7247 8472 4830
2156 5237 4434
5913 7432 2260
1242 3999 9257
342 2899 3432
1609 7202 8575
7435 7478 5234
5995 7446 3354
5973 6531 2668
8600 9223 6354
6704 9024 6494
7639 8166 8577
7854 8898 718
8434 9074 5998
6246 8514 1871
8843 8852 2267
6412 9341 6269
7373 7922 8180
1258 2746 3247
4199 4445 3911
6088 6846 5804
1474 4803 4921
4719 7602 1231
225 6606 154
7932 9272 2391
6903 8980 6190
6417 8686 8282
3209 8062 4113
191 786 6618
7785 8831 315
9419 9449 9118
4558 6213 2410
6112 7593 1680
6931 7034 7608
3536 5556 2559
4089 4854 8242
660 3016 1669
485 6000 2774
4788 9165 8839
8699 9171 7586
8668 9130 9078
5378 9144 489
209 2546 1916
2780 9345 8273
7729 8638 6596
4278 5850 6038
8718 9267 3132
5436 8628 6777
2917 3889 3456
4645 7724 3347
6066 8802 6515
737 4328 5518
3143 4641 8332
5930 7848 973
4714 5966 4070
8519 8987 3024
4873 5430 1605
2812 5568 3151
9188 9214 1277
5426 7114 778
3705 3780 3935
473 1354 4860
3417 3623 7879
701 5302 5850
6035 9415 323
6754 7882 1767
8448 9027 290
8074 8628 7039
9225 9368 385
7359 8085 1204
8396 9132 4121
461 4458 7132
4225 4788 7611
3802 3865 3714
4286 9498 3041
1511 7173 560
1687 6499 5712
6738 8015 3282
830 8097 4041
1709 9007 3422
7515 9475 6961
6393 8222 8588
4125 9273 4402
4125 6322 3875
3977 6315 757
4045 6288 3155
3276 4034 9106
2636 8201 6971
2725 9392 2830
3719 7402 6665
7793 7867 4230
5640 8401 6935
6378 8438 3618
2253 3671 4156
1526 3078 5127
4142 5877 1709
4966 7830 8896
3624 9252 7326
1921 7060 2517
8947 9075 7566
3106 8924 6120
1342 2318 5415
4826 7693 1414
1139 6160 7233
2174 6736 7268
3504 4046 3175
5092 7746 6153
6508 8608 6375
2873 6025 9112
9466 9498 1027
3017 3451 4975
2728 3540 4356
7942 9085 1576
8487 8952 5287
3709 5439 6122
5373 7534 5457
3258 3794 4339
5745 6350 8481
218 4611 4285
3002 4673 872
6976 7983 4084
9070 9118 7392
5939 6112 3278
2953 4041 4071
5469 8939 9176
473 2470 2759
3394 9223 1523
6235 6637 3387
2327 4209 4378
7486 8045 6022
1450 8438 2775
3241 7124 6975
8323 9406 9013
7172 8730 5318
3248 9439 7964
6840 7286 8961
4154 6781 8586
1051 4304 2940
5388 9167 6257
7913 8466 1149
4850 5060 409
5741 8903 5090
8217 8278 7418
4 4173 263
3907 7245 7934
2665 4943 2006
1192 8679 1417
9247 9332 2428
7933 8677 5435
16 8974 6923
9468 9495 6432
4589 6197 5717
7660 8804 2005
7806 9211 8051
5859 6361 184
3721 4477 3026
7875 7951 7890
6440 8620 2658
694 4121 1843
4812 8105 8414
6219 9471 7158
2898 9433 3611
3533 4616 1711
2195 5697 6833
4359 5667 396
3966 7090 3271
7686 8073 6581
2495 2601 3770
4395 6293 9166
280 4462 494
656 4059 1743
8646 8918 7962
9059 9457 6161
7737 9433 3
9138 9489 7293
3624 9427 8226
4635 6147 7916
6079 7330 5839
6223 8357 4544
6785 8101 8762
2087 8773 2229
1079 5544 7023
9120 9408 3137
5933 8561 9024
2737 5465 4644
3216 9234 3427
5312 6435 4975
3888 4907 1966
4472 6266 8281
2963 7289 2819
5616 9021 1176
7966 8000 1854
2572 8630 6468
3792 6274 8241
939 2223 3481
1093 1870 3149
4771 8379 3295
3551 5714 6934
2169 5050 2090
4828 8716 2466
2862 3988 4516
6998 8049 5056
2395 3113 3925
5644 6414 1072
5350 9456 8753
8903 9479 6755
2657 3450 455
8337 9279 8145
5059 6172 359
3711 5724 2821
4457 8494 7553
8266 8968 105
7394 9159 4692
5980 6421 8850
3699 8206 2789
1532 1744 7782
1796 8013 2052
4876 8458 731
2089 6353 5167
7041 9180 8113
453 531 223
3161 4258 3553
2708 3614 8845
8084 8840 7200
7462 7795 5348
636 8266 5516
6410 7695 7777
6001 8825 4713
5075 8358 851
1612 4005 8049
1401 7337 7692
1462 4557 9137
7222 8379 4013
6883 7497 7564
6445 8543 2557
4054 8862 465
2491 4071 29
393 7661 6659
9082 9110 1596
5721 8607 1608
5774 7806 8862
4395 5096 3232
7603 8055 9459
6438 8105 2063
7928 8305 653
317 3798 9352
1863 5673 1582
3040 6147 8418
1462 8586 3173
2310 8151 7571
7640 7821 8874
9276 9394 3120
8747 8810 1939
2756 6860 373
549 2295 2931
2661 5755 5041
7832 8089 8064
124 5416 1550
5823 8819 95
2217 7642 4482
286 7195 2371
6612 7950 8685
6830 8180 9241
931 7305 859
2179 5571 3431
4256 6401 5506
7447 7853 3203
2629 4283 4862
5465 7168 533
1042 7701 6031
8534 8724 1094
3377 5374 809
1361 3122 3439
1754 5409 5290
6108 9333 3608
175 7765 9372
3823 6219 1707
2525 3266 2585
8739 9487 6332
2830 9006 1425
8527 9271 4868
3589 8462 8177
9059 9366 8171
3856 8403 431
4680 5500 7623
9463 9489 5940
7292 8135 1770
2194 3213 4755
6092 9236 3462
9373 9438 613
1558 8933 4605
1344 4865 1278
3440 8064 458
1687 6492 6960
6443 8466 6659
2407 8326 9135
4580 7660 859
3825 6967 1324
4465 6299 5153
8050 8810 8825
2674 4869 8156
6378 8658 109
1023 6499 1181
2814 4970 6914
1813 4862 785
8329 9442 5294
4393 8397 7441
7906 8810 7753
4229 4871 6753
4104 8921 6330
5902 7143 2555
7799 8719 6329
855 2799 5534
9115 9123 2144
7857 9381 3822
3829 6003 3536
4729 8778 5159
2270 9304 136
8863 8996 4999
5949 8007 7231
7313 8491 4941
5019 7564 848
3342 5124 7545
2730 8941 4671
6034 6456 528
33 5752 8500
6714 8593 1240
260 4949 697
4090 6223 5803
1821 7253 3811
4180 7110 8826
6290 7679 8719
7917 9210 4891
9494 9495 6826
2023 2142 7846
4762 8902 2163
400 5230 3
6856 8384 7825
7837 9440 7285
3749 6676 8760
8952 9140 2263
4813 6863 5257
574 3578 4837
2491 3097 1224
1682 7373 7902
183 7616 2881
391 7038 3394
6022 8114 4918
9462 9485 4378
1022 4969 9006
4060 9153 2965
2089 7150 5904
8948 9062 1779
399 935 9174
4214 8427 3371
567 3566 5880
6575 9034 4064
6627 8455 3503
4075 4867 4036
8196 8672 1499
8682 8745 4596
5728 9218 123
6692 7235 6122
6999 7028 7128
6236 7387 7457
277 3946 3268
5533 9426 8516
1576 6678 2908
5370 6039 8197
4572 9147 6947
2344 5123 6939
625 3137 791
6810 7429 5395
4709 5101 2273
1743 3909 2227
925 3546 1159
2682 5941 8579
8004 9049 2313
368 473 5650
4331 4881 2032
8114 9174 2286
1209 8584 3462
5002 5439 406
4261 4947 2583
7492 9332 4337
8771 8774 9162
8447 9120 6199
5451 8903 2984
7247 8309 6790
4815 7433 7647
9082 9103 8387
3462 4009 5284
7858 7891 6007
98 4729 531
2168 7655 1989
6004 6051 4043
181 2472 4116
5367 9385 5350
8452 8897 8852
433 5279 4571
4370 7682 8343
404 7760 8013
5316 8115 5139
998 4859 3861
6050 6959 294
8493 8959 3373
1314 2088 4707
8233 8628 3133
7726 9123 4169
664 7012 6482
3885 4471 2243
8373 9206 2028
9112 9225 6585
4727 5335 8015
1432 2898 2252
1409 2435 2738
564 9405 1996
1667 3395 8932
7353 7904 7816
5537 8887 1046
5011 6669 508
5466 8700 3873
2364 6288 3996
901 2776 8313
6661 8969 2302
5494 7383 7357
7738 8867 2820
429 773 1115
7286 8362 5048
7180 9205 8712
3414 7033 6627
9067 9291 3650
7898 8433 1458
8081 8967 5677
7593 8034 9288
9238 9334 5433
3422 8562 6263
3507 5496 5894
7337 8563 2786
8162 8268 1670
1185 2878 1535
2611 2645 1951
266 3187 7793
2776 8865 9134
3992 7694 8220
1452 3641 2033
2824 7261 1213
2506 5781 207
4661 6811 2034
6078 8231 6867
7885 8956 1363
1775 5111 5940
9114 9157 575
1605 8269 6223
5349 6764 5960
263 2792 376
1114 3781 955
6623 8994 2894
847 6165 379
8519 9071 89
6415 9222 3384
1736 5550 8540
3607 6843 5778
4885 7159 5684
7686 8506 3320
6686 8823 7807
313 1892 4835
7944 8786 5979
1926 6430 7767
4885 6370 2032
7844 8393 2416
1505 5558 5216
7131 7262 2075
3921 6272 3690
860 6722 1788
3899 6541 3396
338 5272 5069
3430 5076 464
5795 5991 8483
6428 6903 6185
6251 7798 5326
8957 9318 8157
7610 9109 3273
7127 7972 3338
3693 6642 5288
666 8698 905
2260 6629 6336
6858 8297 6741
8896 9361 297
553 5564 2090
7755 8111 7217
4804 5104 2621
6798 7562 7097
8856 9053 5238
3778 4596 3394
2428 4338 8965
8054 8982 1123
198 3112 2875
5641 7421 251
1865 3440 3145
5637 9490 4025
8564 8944 2199
6412 6660 5904
6530 9304 6072
820 2525 974
4223 6855 395
6183 8921 9006
3188 9472 7823
5265 7441 509
2337 5089 6804
9082 9189 4698
6532 7155 1547
2114 7050 9016
3683 6207 9351
2055 8267 7049
7795 8831 3351
1614 5006 5563
1941 5489 1335
9244 9282 5666
2614 4487 9139
1337 5660 7277
216 7208 9406
6589 8888 6062
8383 9147 5948
9119 9310 5121
9143 9383 8846
7721 8075 9474
7631 9435 5075
4754 7917 8973
7284 8105 2474
5737 6936 773
3836 8702 9156
4773 5226 2849
1457 9053 2006
8469 8631 2323
8919 9315 4660
9454 9485 1533
6181 8821 8940
3737 8536 8456
6470 6956 4842
3292 3678 1854
1938 6843 1264
1219 5462 7873
653 7637 6361
6445 6774 8721
9312 9322 9324
7525 8321 2554
1702 3646 590
8387 9081 9100
5720 7154 7186
6272 6794 6985
1226 1606 6053
2680 6025 7690
9345 9494 2817
7145 8355 4374
3355 5381 5682
2293 3540 688
7730 8373 5280
3247 5494 1345
2438 6056 286
4428 5574 4047
2451 7602 3495
3896 6136 1402
1784 5222 5898
89 4098 3748
7244 7399 7759
2192 7406 8450
3487 8958 8591
5003 8294 7026
5684 7641 3603
7062 8733 8686
8291 8564 8652
2751 5030 4646
9351 9476 9073
8780 9177 3510
1025 6938 3524
6620 8740 3664
5882 7041 5121
2566 3478 981
417 2388 4618
4888 7010 9333
1099 3752 3777
9483 9500 7815
8788 9278 2702
7053 7875 9459
8620 8929 8852
7260 7361 2718
1148 1699 6574
3749 9261 7554
2849 6361 5128
8391 9417 1176
7126 7447 6924
2723 7009 3113
1711 3601 2696
4474 8217 929
1820 5008 7820
6095 8094 3687
2135 2643 1995
953 8888 4526
2953 7713 7783
7107 8983 145
8202 8620 25
906 4855 206
7378 7682 7934
3339 6553 7871
2138 4469 1393
75 6459 8168
3704 8967 1569
111 8413 3896
1172 7717 7280
1826 5721 1989
643 3261 3559
7060 8686 5154
3792 8150 7049
9208 9326 7791
4065 5702 8671
7700 9236 4525
4673 5037 4386
2460 4951 8103
7834 7990 647
794 5464 5524
7362 7687 5063
4535 6527 4652
1449 6027 855
5043 9040 5109
5810 7203 6877
9354 9470 413
1733 5414 8220
773 3095 3771
5945 7531 9042
6077 9271 5548
6331 6921 1324
1757 7069 2207
105 6005 630
2634 5096 110
169 1892 8935
7731 9033 7873
5983 6709 4479
8409 8790 7357
2626 7721 7649
2198 9338 549
7877 8762 3339
2350 5384 3617
8001 8367 2360
338 4666 3137
1890 3533 3507
7902 9414 6556
3536 5545 8112
8433 9120 5013
8867 9339 4348
2740 7996 4332
1151 7774 2461
6795 8269 6108
6640 9349 6636
378 4181 5663
4040 6997 5522
866 7170 5108
7601 8431 4012
9261 9367 1563
4295 6177 7116
4180 8481 6527
413 6952 2749
4538 5760 8877
7425 8695 9216
8935 8995 8611
1009 5663 1194
7276 9336 1654
3610 6666 1559
4436 8541 2607
200 6298 6081
3074 7472 5629
3027 6253 8422
4139 5048 8211
7112 7655 6822
2345 7008 4921
8777 9237 7678
1359 5064 8813
9086 9460 2517
6032 9061 1765
4973 5960 5965
4688 8678 5409
8758 9409 6671
9349 9486 1523
8234 8807 6627
9376 9469 2415
7052 7760 1696
6979 7550 9040
2429 5310 9146
7059 7516 7742
1114 5915 5663
4748 8017 2379
4051 4215 9066
2205 8791 1175
6531 8767 7512
3261 6907 2343
2829 5571 1924
4482 9319 8486
3510 9039 598
7612 8915 6838
4462 4974 2490
9178 9259 5364
7740 9150 3700
6333 7274 5387
3976 5018 6313
7154 7286 2608
1923 5265 8897
5694 7194 4212
7859 8542 1370
7241 8738 4297
4991 6370 4649
8046 9186 9479
7804 9266 8864
4152 5114 491
6436 9086 9378
3161 6131 4050
9437 9487 7630
4287 5196 2791
1958 4117 7890
7264 7758 1593
2994 4031 7887
3852 6025 7705
3669 8685 169
789 8331 7133
416 999 2549
5652 6920 71
3081 6352 6373
3152 7954 7009
8545 9104 2141
9223 9430 2472
2104 6344 6358
8603 9325 818
4617 8187 6188
7844 8164 7085
6131 6899 1071
3435 6079 1097
1661 6290 7848
8926 8986 4283
3118 3132 8578
2749 6522 6469
2767 8994 3390
2619 9299 8444
720 4578 3147
9491 9495 209
7338 8821 1855
2915 7824 7865
4896 7668 7332
8121 9229 8578
6774 7397 8939
1 8532 4668
3758 4031 4168
8338 8487 350
405 5932 2311
7090 9232 267
1155 2635 3637
653 6365 5623
4162 6059 2950
4689 7815 4635
7525 8146 586
7327 7569 6065
2609 8882 9333
2120 8430 3302
7736 8660 1611
1319 2251 98
9264 9265 447
9376 9490 355
6349 7394 562
4264 8751 4666
4900 8005 652
3090 6577 7100
8476 8562 771
4702 9384 6809
7430 9139 3984
1830 7524 2900
9079 9459 5660
644 9183 6205
3950 4204 7958
2858 9020 6730
7502 7714 3700
1784 7407 3738
2437 3610 6869
1270 5505 263
7366 8651 3239
6899 8684 8032
3826 4621 4324
243 8292 4869
8570 8598 2852
8934 9244 4328
2339 9155 6042
1788 2587 2794
4466 9162 6339
4911 9456 4556
7035 8769 2642
2397 4941 1693
4779 5371 1659
4058 7153 4542
8863 9297 9236
5545 9411 3449
6189 9110 994
6187 6625 4310
8866 8913 6505
347 7262 325
4365 5860 1351
4005 8170 2892
3863 7198 4764
5964 7262 4288
3310 6228 8756
741 6748 8276
1527 3399 6647
1941 5139 4858
2312 8560 7817
4192 5440 5967
597 9042 6618
4584 9171 8085
7478 7573 9293
1540 4937 6038
3291 7854 566
758 8218 8073
4499 7884 1800
1216 7630 1230
1970 3268 4534
2383 7957 8434
5137 6561 415
5227 7240 347
9015 9439 4477
2654 5453 7201
1441 7412 1309
2746 3634 2308
9088 9368 2630
8487 8811 4458
8979 9224 6486
6981 7605 8344
7327 7801 2650
129 6160 8869
5054 7382 2396
9322 9395 4017
6089 6983 9216
1924 9033 8122
8629 9240 534
5262 9095 3662
3732 5279 2640
1046 2454 7871
7309 8405 6748
2870 5640 4167
3009 9200 6000
6182 6962 659
8914 9405 2378
6219 8080 2556
5169 8389 4404
6842 7928 4071
418 8303 5224
6065 7443 4740
8215 9338 348
6464 8199 6361
5582 8546 8233
2272 2417 8392
8626 8771 6654
4673 5340 8907
1130 8288 2381
7503 8967 7293
6780 9224 8700
5411 8887 5524
5178 8526 1496
2496 9480 4443
9009 9441 6537
4542 4754 7206
7399 9085 5363
7852 8895 7895
7162 8377 3234
7233 7529 1773
2674 6333 7161
7658 9336 7899
2602 3623 7539
3812 9187 3975
8624 9145 1435
9245 9436 6975
5532 7825 73
6370 8172 9016
6662 8178 2196
6751 9394 8694
4340 5247 9484
6865 8367 5535
6698 7048 3858
4547 9437 8478
6602 7151 4445
4257 6852 8357
3567 5237 2815
4721 8622 8447
1471 5401 3285
4584 7889 8857
5449 9268 2163
5786 7297 4429
8733 8750 3585
8500 8826 5591
4094 7330 364
7298 9091 3732
6574 8836 111
8979 9375 9101
101 5941 1127
5075 6110 5923
920 8438 5083
6201 6538 7173
1599 7374 6924
8914 8937 4850
7833 8041 7106
4042 4247 1799
3058 9431 2337
4648 5125 6729
4768 7399 7965
4479 9179 234
4348 7214 8779
9185 9304 5630
3541 7879 5842
3227 8750 5696
6934 8364 8913
1791 5163 6801
1447 6793 3018
2356 7255 8762
177 9358 4262
3714 8467 3038
9332 9460 3679
6282 7730 7896
5417 6478 1616
3746 9262 9006
4410 4438 4748
8985 9332 3185
4758 6453 6540
8153 8196 4696
1750 8155 779
5755 6657 3617
3745 4763 6441
6746 8054 4808
3351 5617 5053
3695 6303 2499
5506 6160 66
131 694 9065
7994 9089 4597
8750 8838 227
1850 8408 1041
4990 8103 1363
2925 3251 7565
1455 7633 6718
2125 8139 279
7809 8786 1078
4940 7626 7455
2826 3883 8359
388 430 7797
5683 7265 8264
922 5780 918
6251 9274 415
495 3931 9224
4352 5266 6413
904 1200 703
7413 7566 5639
5877 8676 2971
9469 9488 9233
5499 6917 3673
8016 8365 7978
2537 8690 7504
848 2153 1369
4235 7406 8459
2212 7568 6216
4603 5679 8599
7233 8079 1002
1094 1924 405
868 5508 6187
6892 8102 285
3846 5162 8663
5082 6840 519
3976 5706 5505
9436 9457 1910
4377 9131 8523
7967 9450 3874
7029 7709 7908
6625 7231 8882
3040 7336 4301
7912 9219 6824
2123 6264 1983
6831 8558 331
1002 6321 4123
5045 5495 5266
1392 4114 3493
1866 5362 1044
6385 8439 4354
5697 7879 4595
1627 8676 9125
7379 8284 328
7033 8075 3837
1114 4130 673
8085 8171 924
7096 9289 1232
37 399 3823
6138 9393 8971
6536 8021 3039
530 8651 8665
4673 6584 8089
1226 8791 1402
7148 8348 4973
6449 7347 7616
2339 5101 6996
6263 8849 8437
4487 6528 1496
516 8506 5415
5229 8102 91
7357 7542 8405
9180 9264 7595
3726 8545 3807
1406 6488 2915
3583 5416 1067
7662 8889 8082
4801 5765 9371
3394 7549 3892
8156 8409 7160
8456 9387 8116
397 7127 2818
1728 6772 1026
2487 7380 977
1238 2185 6065
7666 7745 2509
3239 4355 8858
5508 5908 3228
2229 7487 4055
8050 8203 8734
2523 7464 2410
5818 6177 1855
2384 4107 8152
6483 8633 6678
3841 5267 4614
2540 7493 2619
3677 9105 6134
4651 6957 5928
8809 9076 8860
5790 6447 4421
4057 9209 4725
6585 6620 4052
341 4923 8350
5884 6496 9452
8463 9474 5578
423 8764 7653
5796 8894 3938
5750 9144 4970
944 2218 8897
575 9093 8143
3008 4384 6559
7938 8810 253
2344 8371 8345
6773 7993 6784
3115 9069 4126
3212 8237 5603
8454 8467 2134
5412 6535 6071
9284 9453 2614
7773 7839 6670
3763 6114 4783
5825 6299 5459
6724 7127 9149
5188 9028 7041
7691 8620 6482
8295 8746 530
5268 8523 7964
8628 9391 2362
5203 5648 4352
5278 7353 2554
868 1947 2739
5280 7613 6345
6762 7375 8679
9355 9428 7963
5620 7277 136
3028 8180 615
1458 5023 3255
4383 9090 4603
3067 4641 1103
1190 4356 1672
6131 7881 8032
1226 5810 4116
1926 3268 9371
2018 3801 8484
2180 3389 8855
9126 9323 7514
2527 5598 1639
5855 9402 5271
9250 9471 783
5772 7081 5272
4301 7989 858
2114 7932 5381
1518 4451 477
5152 5909 2843
237 5234 2897
2268 3419 4916
9441 9491 5095
4910 6069 2250
6107 9379 7602
2459 8583 6413
1531 2997 5565
5891 7760 6360
8865 9180 6426
9331 9354 723
9376 9417 2748
6096 7553 4028
7974 8139 2418
2807 8237 8895
2317 8386 5853
6690 9203 7187
1076 1407 2963
58 5143 8537
4669 5923 200
140 1636 5014
1109 4923 4271
5904 9481 92
605 4093 3908
1580 7618 8823
6492 6676 1756
2603 6155 6329
7483 8291 944
6960 8605 6130
8771 9294 2431
30 8777 9291
3940 7108 4232
4056 7668 4607
4843 8817 6344
598 2152 3458
2427 4275 7138
5668 6893 3768
6284 7856 1504
3452 8951 7225
3002 5729 7589
7385 8383 265
9353 9360 1764
6956 8650 2632
685 7856 1088
7766 9422 2134
8388 8932 1853
8981 9076 5498
8025 8758 8622
1208 6513 9098
1804 6491 2858
1123 3845 6685
8891 9077 1656
2755 6503 1989
7286 7910 8272
1411 8312 6219
6275 7189 3232
1212 7099 4402
4307 5074 5036
1262 1708 973
3857 4063 2759
7120 7198 3834
8050 8496 4554
1300 6939 2022
1603 4867 2734
2127 4059 1157
3788 7090 5997
6231 7584 1431
8504 8683 425
3225 5970 4391
1940 8314 12
7522 9178 2699
1207 3065 6168
7714 8595 1733
8975 9122 2208
5064 7387 771
7671 8784 5744
8280 8583 1101
5243 7991 1976
1784 4500 246
1329 3265 2137
4496 8266 6638
7190 7632 7523
535 7733 5952
7459 8682 8743
2450 8381 6481
7020 9421 9265
1054 5393 3977
2428 3055 6249
2948 2966 1577
2701 5709 4691
4845 5107 2943
4635 9472 5101
8715 9000 1221
7011 8921 2358
3914 8165 6176
4080 5553 4949
5335 9451 3217
4166 5438 4724
7043 7651 980
5493 7012 3205
7561 8685 6299
4417 6861 4188
3807 6722 8759
9375 9403 3016
8798 9142 6826
5884 8732 7433
1403 6151 4599
1405 2793 8956
2528 6821 5057
5799 6107 6915
1113 3608 1924
8404 9393 8033
6066 7869 3201
6630 7583 42
8900 9448 2709
2609 7421 6014
366 8469 2909
6573 7323 2027
9218 9442 5396
5471 8068 3320
911 2797 4447
626 6340 9179
2698 6395 6240
5235 7007 6919
3774 9344 7458
782 4818 5048
3394 4199 6493
2348 4574 2256
8491 9028 7744
3380 7424 7457
7712 9468 1563
6215 8173 5799
2581 9173 108
9216 9373 4150
2278 5078 2957
7494 8599 1657
4360 4454 4701
4571 5214 5829
9119 9394 5898
8285 8747 9391
1465 9132 8147
4292 8118 6554
207 2172 9479
5627 8052 4016
7472 7509 5385
2859 7416 6263
1368 7191 8866
5919 8011 5346
9489 9490 8823
8895 9086 6222
324 8159 1343
6927 9172 566
3442 3500 6738
5186 5557 1258
1805 5750 5384
6994 9304 1091
2548 8352 9357
3050 8017 4018
