19500 10800
17647 18987 10681 500 6818 2088 15785 12578 6178 12036 7051 17156 13898 16185 15175 8988 12421 12289 11546 17894 15387 7679 10957 6109 12801 2494 8536 14802 8674 331 3597 6335 14653 9483 17459 16650 7177 15823 16693 8108 1138 106 11380 2674 16082 4441 14196 9680 8165 14442 590 8393 4662 14385 7917 16916 773 17089 10371 8261 710 10756 18328 11851 11405 8953 12508 10861 13193 19153 12544 3058 6753 9710 366 3533 14491 18806 12951 17522 7255 17580 17644 13542 19271 9485 19405 8564 10989 17890 17196 7477 25 13241 2217 4487 3873 406 7507 3517 8714 1814 13667 1230 17598 5613 17358 14563 16171 19120 14098 18998 16934 15521 7428 10541 674 15751 16321 2109 1713 10915 17872 9262 16809 14302 300 1457 4102 5928 4619 5073 6271 19101 1810 19346 8561 3361 14947 12387 3283 4956 14155 18443 8242 17625 2911 6157 15710 2803 9580 11640 15543 14180 10147 7354 11807 5843 2108 1113 12484 16764 9290 1888 10521 16233 13503 16423 19336 5386 7833 17567 9789 10600 7628 4518 15181 8382 9251 7284 11595 16189 251 8593 11527 9893 7585 5124 6441 18333 5365 19240 1549 11458 2745 2144 11861 17717 13660 3920 4371 1583 10905 6114 10562 16010 140 13807 3076 4184 4383 9306 15155 7979 15198 13749 1099 6727 11608 1015 2776 12210 10071 1555 2778 18048 14677 6410 9488 18676 10059 7530 939 5665 9817 10052 10049 14019 1316 14387 13779 11501 4378 7380 15886 6053 10293 3056 14222 5401 7101 2981 6361 18085 6315 5061 541 7246 4063 6096 11869 7618 10366 18672 883 7432 7512 6263 13868 4223 3748 2525 18983 3728 16862 16869 772 10285 2381 195 18677 8998 3911 16796 11967 13408 15204 3027 17670 6970 15095 13798 19193 12043 16271 6434 9533 13497 17775 3018 11985 3352 15476 3152 16537 14986 2852 14176 7448 7614 8323 15266 111 5852 12017 16527 2874 2665 18342 43 12821 19113 19195 18561 11451 8499 8269 15492 11785 7021 8105 8059 3476 1541 12175 2203 5582 4078 6033 19332 5313 6197 3473 2300 7525 12553 2676 12389 18819 7981 4197 4030 9393 11359 18856 15085 1347 622 8791 5539 11883 16529 9588 4115 16197 10222 9645 16325 8188 11144 2469 4301 17676 2403 9403 14178 17128 1349 11888 14273 3220 1860 15855 18327 10478 2970 11758 17384 7532 7911 10736 3707 6806 13363 12554 12417 4215 192 10873 18571 18642 12055 2438 5543 17295 6518 15090 16608 19262 17982 13765 7771 6461 7757 19232 13152 3618 13977 19298 4844 8219 9948 78 2617 8989 3074 3295 15206 8353 1627 7501 7126 14953 17781 7162 2447 9024 10934 15440 14216 12003 2012 10070 12248 82 14370 10657 2709 9061 2589 13938 17921 12699 245 16155 2802 2788 4061 8015 661 11070 14643 720 6981 14752 1651 9938 12233 2431 6993 14724 3619 13240 2868 4027 3704 3201 4368 10759 9432 619 15919 635 14076 10878 19356 17037 12625 220 14559 13265 15727 15701 19352 1021 12966 4581 3368 1397 16838 3344 257 8289 13619 4409 12028 10659 17594 714 13527 474 3732 12241 13354 7726 18626 13715 14270 15074 17995 264 4395 232 13908 3814 3114 15345 15372 9314 18288 3504 6775 13703 13745 2096 7985 13523 3339 2308 5479 2607 10529 16985 9387 4132 5650 4657 15802 15636 11330 17896 6960 4586 6832 2672 9458 4978 9421 11281 13678 984 10132 17680 15352 17187 18771 12250 18801 9621 3321 259 450 15342 6045 6762 1880 57 5488 6910 14887 9026 6863 5996 6591 18848 10027 12602 10737 17016 7357 18027 15374 18042 8541 13094 3481 19076 15868 15293 11344 2383 1191 1434 14718 8347 4519 11735 384 1507 5704 16049 13358 10656 9539 18106 17629 7609 3048 14524 2373 2451 3459 16473 3305 10398 4252 8547 7393 17667 16706 12616 11404 19370 1152 9220 8502 14139 17624 2008 8446 10084 12864 17884 6944 13128 12135 10755 7623 2165 4552 2976 12993 13806 8785 12983 8982 5225 4345 10287 18275 19424 7461 10213 16765 9156 13753 16228 2432 1858 4462 5666 11245 9523 284 6463 11672 6524 10972 17967 12361 16777 6038 7264 3337 9086 4935 18450 7418 6329 7907 27 2276 677 15952 11903 13601 7199 6504 13462 12222 5098 11761 1050 8530 16718 2149 9768 15430 18667 11940 2285 18735 16966 16262 9077 11599 18438 11498 14870 12733 14547 14399 2262 1475 11040 17319 10841 5465 9528 198 17102 14925 17895 9047 2117 3423 16415 6940 3311 17496 15743 8485 68 13510 11122 6841 1846 16108 4141 2178 1928 8841 16198 14160 3694 15716 18849 15686 6488 1251 15117 3777 3013 11898 5602 2535 14479 17861 14827 19310 425 17616 407 5160 18648 17638 5384 3660 1854 13626 1364 4777 790 3054 18566 10430 17710 2850 15379 8655 13889 5441 5977 2605 5870 12673 14908 14436 1595 10514 9164 12315 7033 3599 6808 11539 10241 13710 10956 14942 12501 13054 5530 2794 6626 14371 13393 9335 14044 8562 10195 2934 18795 5210 14944 1712 16353 10 9293 7240 191 13792 7237 4516 16064 5427 5627 14931 1672 15252 17308 13227 12262 1425 12503 15786 11876 6080 8758 3485 1631 5473 10974 1108 6049 15203 6607 17452 15621 4440 18895 12388 4781 3786 18208 18746 8127 16025 1121 15000 1182 4758 14727 2623 14693 2728 985 5255 3565 19449 18302 3651 11921 7377 3187 18358 991 16961 8556 7482 17052 9861 1743 18183 2130 903 12464 12911 629 9117 11464 4511 18880 11828 13282 18000 19380 14796 972 18796 10262 7337 9174 17335 5184 12577 16455 10496 2049 3693 7355 10764 14368 374 5478 3182 5217 4318 8006 5775 4843 3179 2949 14130 6646 5942 7292 13672 15923 15753 11781 19017 18171 3901 16100 10971 231 18084 606 8161 4468 1773 16528 9076 12040 3590 6024 17633 6956 11760 17641 18310 18719 13733 12329 19256 16488 15534 19087 6897 16495 4267 9778 13163 1398 16927 18091 7567 6299 5545 9748 11423 12666 1153 6685 3595 843 8065 15880 19278 19115 8070 8811 15759 17271 15481 12862 16569 11634 16887 8566 11156 8498 16742 7787 8531 15548 13594 16129 345 7778 10523 7720 8470 8084 5648 7331 16721 7339 1867 14205 1299 14455 7729 14381 14250 17311 3221 13772 15852 13222 18995 927 18513 7756 13900 3438 12842 15134 8184 12791 16688 7577 1176 15078 11278 7682 6720 7288 8249 12745 2967 15205 11723 3454 628 13739 8872 1112 11324 15255 15399 14819 9784 12393 4911 5492 9166 10899 13505 9867 19122 6297 15136 5779 14313 306 12482 4164 16741 15651 11089 16048 6121 3284 5123 7705 2928 11937 16320 4985 11538 8019 15246 601 5389 9284 9037 11114 334 17263 19368 13881 11320 3259 1473 10701 1235 7732 12332 5326 12643 18197 18198 18616 3292 8890 14220 16172 15968 9642 18565 5040 11295 8757 12629 14355 2971 14192 7047 444 5059 18631 5510 5737 9312 9715 8927 13618 10688 16804 18568 14789 4762 5957 14811 11016 12709 11722 11865 809 17444 4575 15313 13854 4747 8551 10348 6350 2945 16592 7896 17731 5263 3959 1419 16802 165 2667 11834 319 12356 4526 5403 8771 5408 5192 2326 9978 4167 9913 4068 5791 16885 12348 1163 9779 3238 12704 2440 13604 11853 6935 3942 17077 8986 11830 8925 18295 19499 18452 7257 1797 5185 14818 908 18532 2894 18439 16474 13191 14616 70 7260 12192 17174 5900 13600 11961 2990 11010 16958 10769 847 7866 10146 13174 17286 4599 3772 7043 2402 17758 9688 2312 9296 19006 17727 15045 8458 5423 1610 7964 4237 13350 5566 17069 14788 6295 2470 10976 4855 7201 10083 1495 7375 5372 8901 14756 9391 16255 13586 863 8317 6925 12925 6951 11240 12239 5968 7517 1247 1409 11840 4902 11635 4867 3235 13991 2052 458 14985 3369 7638 2587 10513 12453 4851 16674 11991 4021 12274 646 15606 1452 9438 11071 18783 2159 7415 2094 14426 10440 13429 4790 17056 6493 3519 11894 14872 13444 2890 17000 19489 15676 12436 13919 6408 8224 15628 1636 1720 3851 6260 2574 4104 3089 15001 9950 16821 2821 11999 4162 17570 14483 10461 13446 4653 11855 9984 17678 19318 13569 7409 14913 10728 14435 5442 17027 3 1943 17709 4680 4136 14212 15791 3246 7677 14933 8843 10205 8579 10080 942 13770 776 14612 9161 4645 10955 3575 16002 16191 11253 5782 1132 712 8987 9439 5841 4452 8095 8459 6820 14169 11199 1396 17832 18893 15322 17412 10676 1921 8066 5776 4899 14886 13060 14826 17460 17 12299 526 18264 6248 5112 11643 6545 11227 2979 18489 10691 16996 411 15696 6655 16466 16032 18791 18207 16315 5213 10964 7617 16739 1872 3925 9726 13795 4613 2561 17843 8821 16424 2877 9248 2230 8641 17361 9864 12646 9932 3317 9197 17411 16226 5405 18317 13899 6319 19118 8550 17068 1370 7792 2112 11492 13361 4337 1420 11082 1331 12165 9186 10275 7456 5312 16140 3038 12738 8117 7499 45 15244 18262 2944 8043 15466 7956 9546 11077 17960 6010 237 10857 8030 2415 5288 15667 12573 3909 18478 2369 5177 16092 13314 3449 5673 14138 18005 10111 9612 11043 14896 332 3428 14774 8023 9559 13171 12623 3669 10534 13103 16518 8718 8069 18533 6377 4523 14636 14506 12967 4878 7836 15446 17288 17809 711 14545 8721 12455 18040 2067 5936 10888 8335 17363 10790 1400 5787 17487 280 5180 8972 3279 13187 2118 8623 14445 11838 5861 13170 17085 5632 550 7494 15088 12353 8910 12102 14145 16450 7775 9437 5455 6606 6199 12747 3723 17169 2722 10797 13951 13646 13443 916 16345 10076 3861 2177 7089 3199 5823 11684 13801 11471 1022 6899 2987 18373 18266 7303 6690 10623 17082 7131 2838 404 7114 16393 13752 19011 14565 10748 10108 6327 10037 6303 16883 10376 18625 1944 17782 2442 296 18993 7205 18869 1848 5507 9646 1007 18139 7268 10317 13947 18679 8650 6287 14592 5992 16700 15608 2854 4732 12628 7488 17232 360 3676 9943 15268 4701 14126 17283 14203 12182 11119 5324 16313 3536 14133 11319 3360 14608 7040 13458 12949 18184 3770 987 11757 3773 3557 14027 13319 15601 199 3828 15127 13175 166 14165 3293 14108 8104 16790 5818 542 17318 18580 4883 3479 3026 17242 3260 13844 8847 4158 784 10944 2683 17158 9299 1052 20 3799 2726 4891 96 7385 2912 1995 4857 13935 7187 14322 17840 6342 8764 157 14880 409 14957 4716 16392 14092 15040 15864 11918 13149 5609 14787 7556 419 17540 15436 13905 6345 7840 3081 5460 19450 18710 18155 16259 2753 16136 12517 8387 14630 1118 3620 3805 3408 6058 15932 2481 2315 9762 4217 5838 18587 13528 6967 15788 2 1222 2763 5381 1617 4538 775 5136 10661 14744 15432 10256 1622 4088 19297 10105 17503 5707 15912 14750 15840 7150 19345 7865 5043 15067 9382 7067 12916 3633 13558 7249 4455 11956 11152 5734 18012 3149 7916 1982 4611 196 9977 13789 8468 6275 9772 17869 5298 12209 14159 15443 4329 6576 2197 10029 5730 1813 19216 11794 18824 17663 19171 7336 12684 5899 16523 9965 3407 15925 17693 4369 8189 8270 2022 2013 19038 8295 14066 6324 8797 7080 10524 7642 7480 14037 12875 662 3118 15194 2631 8154 12105 7798 3177 7804 14992 1938 5678 864 6435 12621 14373 10464 11011 5513 7853 15898 17555 14689 11990 3023 10064 11555 14102 11697 7954 18897 16253 10876 14283 5801 7852 1674 11770 2752 10116 9065 19261 11367 18592 497 18528 254 17562 1127 9597 16892 164 1820 3951 5058 17161 17347 4533 17604 1374 16094 13823 12632 3594 15525 7590 16034 13211 6341 16543 4996 12385 17514 8426 2869 1656 16095 14799 3912 1280 19334 14813 13968 9777 4169 12227 681 4307 7039 3396 12442 11137 10725 6014 10322 18434 17609 5698 13686 10131 19480 15721 3386 2926 363 12466 4668 12547 7906 3290 12187 1446 1060 1123 3529 10497 12722 15909 3982 12574 13879 19301 16516 18776 583 17543 1105 9041 7368 12696 8881 3315 12540 6478 10605 10809 4782 16767 16003 7100 15705 14408 6241 15623 11560 16145 6707 17606 10993 5270 13976 9677 10260 289 17124 19276 2677 446 8845 14959 14078 11100 14810 13625 2430 10968 10103 5097 16333 10395 18158 11529 16847 14692 5621 8125 19 17030 7969 18910 11339 6654 18102 14593 702 17888 1047 5970 3864 10931 5269 11980 15854 11395 15877 2809 12259 6465 14487 18461 11317 18889 3134 8437 2629 5339 13226 17355 16227 1268 13740 11971 10002 2087 15500 13273 12954 4168 11792 6116 3106 7075 14443 11477 10043 17340 12765 8339 13513 12860 15781 16633 18293 15905 151 834 8567 16589 18390 10504 16241 9124 7582 7146 16178 6553 13550 9242 14437 7586 6587 3014 9661 7299 15943 6336 15429 7182 10825 8720 244 7103 1184 10098 8725 4439 3242 7952 2030 19495 1530 9508 12669 983 8195 12556 11668 6355 12658 16941 7412 7795 6428 2187 7540 6031 18494 10390 18330 8152 16616 8610 12296 15780 958 8654 13177 6172 7973 2511 11297 12922 8812 2215 1223 3493 13006 6090 15506 8079 4673 648 870 14131 3946 4339 2237 13847 17533 3823 4056 8994 6941 3965 14801 16480 19027 8735 8316 1609 5129 9720 3326 1887 14224 3414 7999 5917 9302 7166 14964 9935 3117 13836 16310 9974 17322 10773 2167 19464 13804 6137 819 4398 13299 11440 6093 17382 9130 18320 10415 15471 14963 1647 4904 6625 17098 11571 1803 3453 5336 10286 10442 5654 7905 9255 7330 4750 10511 11088 15394 10472 13470 2616 18691 13297 16597 2213 3255 16477 2595 10847 7565 8360 4322 4201 10089 7515 11630 2552 2755 16314 11331 16377 7212 1048 13269 11801 1174 9697 10110 18319 5183 14897 18774 19304 9362 13399 7687 9796 7111 2069 1442 10384 11190 1975 11220 12228 2007 3355 6285 17464 560 6111 1951 1506 8866 19224 3135 11358 14319 5875 8995 1241 755 14090 6966 9951 16570 2638 6675 2867 8287 9949 9516 16538 16177 12243 5921 11085 17349 1098 10988 13121 5447 11354 19053 7785 9068 16332 9180 13883 10810 13961 18071 10025 4862 8859 16841 5242 1410 10618 8907 13043 9383 6763 9394 7471 17343 14793 18741 10315 16918 9754 598 4172 19284 9975 15553 4444 6273 6548 8395 7325 14661 13106 14321 15113 1563 1835 11813 13199 12583 4621 15119 14784 18414 4273 655 12863 15020 5981 2827 16281 17491 5923 8315 18363 17595 4860 15738 14432 1431 11892 19069 17025 16428 9824 6135 8817 5947 2115 6894 9886 3593 10369 1405 4522 1633 440 6099 10831 395 4877 16357 3769 5253 11600 613 1087 5732 18375 3274 1368 8170 2372 16571 13050 9384 17692 2018 9324 18974 16737 18418 11811 9155 2017 16186 13180 4979 7659 2261 17120 6029 12236 4236 8140 4119 12562 2224 14697 19419 1439 4484 16604 11280 2228 14523 18167 2876 11511 1345 10813 8977 15737 8691 14685 14584 6141 17628 3051 14374 1055 14745 4885 11541 1492 8029 15933 80 14401 1496 14190 6411 574 9910 607 9782 1972 518 16402 8846 12642 1377 1133 5137 14981 7400 6692 4745 9881 2155 6676 16327 17353 6830 9028 5212 10864 4239 15477 4721 2699 10006 2068 13814 4834 4131 18497 556 17757 19217 5853 2895 12524 17735 16750 13036 11569 17701 1568 18376 9521 16754 8929 3761 16588 5693 7227 964 7571 2172 8916 17713 13826 1359 5931 2379 8657 18779 14807 13085 17551 16866 7152 14510 5443 3789 12156 15272 4951 17438 12309 18881 6670 11910 11443 6317 10842 726 15970 1745 19342 2484 13276 7234 4234 5060 8367 8157 18369 1100 4706 2280 17850 3877 15070 15972 8101 1270 1513 19068 9243 6715 15472 8870 6487 7018 625 9099 5516 13375 3243 71 13955 5466 7468 12330 770 17468 1427 11972 10832 16572 15010 3818 5140 18457 13482 5509 4037 3821 12435 851 13290 11436 13320 12523 9230 12512 12912 701 10289 1618 16510 6642 19033 8612 16770 9700 14009 6104 8558 4822 16079 11795 6620 4590 5175 14122 3885 806 18759 4427 10073 13588 1317 3415 5748 5610 6424 3631 1116 17833 14698 18630 2835 10249 3566 14444 11589 8457 13846 10830 7254 4764 4835 17439 589 4255 12506 19026 10238 5378 7035 13179 6999 14885 4041 16343 4105 5612 3245 12305 16493 9501 11987 8974 7918 15595 4311 14735 6652 8896 9572 4053 10283 17671 6351 10510 15498 6883 15625 14349 3011 17228 9340 19180 17057 9853 9714 8529 4677 121 4137 1460 1106 7372 17590 4126 8155 10545 6291 2518 10455 2566 16779 18858 17768 8462 1994 4366 17906 5961 17066 15126 15447 13474 17075 4059 11901 5886 8338 7509 7893 5410 9456 13835 4202 13630 5526 16800 12820 12703 9674 10245 4574 13131 1309 2388 10780 15490 6204 2950 18799 7034 9145 9519 15526 10404 3570 4618 18862 3760 12271 14480 3803 102 15920 18851 6245 19263 4190 2202 7405 11821 6663 18126 975 4243 3649 16358 9265 10020 11738 2413 1942 8495 12994 16728 19411 3332 7314 9250 10426 12444 229 12130 269 11008 8798 7180 18652 103 12372 1703 5407 1094 8819 13943 5593 9756 11597 6926 7235 14012 10010 7742 4990 6666 1421 2878 12710 13538 1613 10155 13736 5267 3131 16124 4304 9228 1281 5359 13651 1836 15407 15531 19097 11769 13554 12053 17391 1709 18705 16665 10393 1333 17410 2596 3258 18177 9669 12172 10723 575 1283 2429 866 11288 14199 13987 7399 1751 3250 1388 15975 7135 4285 17934 12264 6473 13185 10537 17802 9673 18470 11205 6331 14955 3700 162 10266 4910 17583 15053 16715 12034 17765 5865 7930 11179 15358 12685 12640 19463 2591 4501 16093 17994 9990 12229 11263 4195 2229 6242 17230 16221 1044 12819 8980 3417 16211 16501 9087 10319 2880 3615 6015 2062 17711 13369 5491 10673 19442 10869 5457 1204 3562 10588 15411 4094 4674 16923 1468 17687 15859 817 13471 14471 10072 9414 3342 11984 8544 12145 4585 9575 19126 4819 6686 4690 13717 7253 13311 15691 14665 10021 12845 801 9477 1066 6749 2842 1327 1009 9204 4555 19468 421 17531 5815 18548 13887 338 15036 1557 16639 105 16778 10358 16691 7073 13183 10550 2692 18107 4993 17621 7143 13645 5932 7566 17920 15146 6698 17298 6537 4948 7546 1641 18190 15233 227 6043 9981 8375 7353 15247 5674 7044 5950 2046 8596 10714 12 8141 8886 17328 3778 9343 9781 5464 15341 13531 4283 12001 3839 7925 9641 10434 16545 8310 7958 14134 7055 16727 13607 4429 2924 1392 11352 12480 6004 5527 17015 5680 98 17473 2810 11046 8865 1075 1274 18469 17794 18523 8379 16654 14664 670 10954 4386 8193 10137 14000 5249 4425 7799 12351 10463 6561 10601 9019 1198 996 8644 15950 13078 12407 18129 9499 12319 18808 3671 14871 7107 18509 586 8931 17104 10068 6397 16685 2954 18917 2434 16280 5883 8 10282 9217 4372 947 17796 1168 513 1952 1293 9844 7733 18525 13606 1043 12822 18080 15253 10138 18089 13627 13544 13116 8505 11688 8463 4944 12773 9744 18782 7554 17149 19252 16020 12221 5069 18613 14952 9474 5703 11028 16204 3025 15863 8018 668 15555 15101 17526 1895 1372 17571 2887 1735 7613 11434 555 1097 4794 9415 820 6878 10231 1042 7829 636 949 18002 8388 5330 14805 14919 13677 2269 14562 11978 9878 16139 4028 1606 14961 17700 16651 10412 2654 11930 12063 15809 4208 10889 11233 9090 5323 582 2192 14994 3484 66 13713 17868 17221 13840 2028 12869 5617 18472 12169 8668 13188 9509 10697 16942 8403 14851 12771 17497 3288 12877 1929 1920 7410 14854 7977 8014 19272 6459 8398 15784 8192 7088 2512 13301 8214 8967 4874 11006 3053 3267 5904 18900 6986 13946 5557 462 2374 14293 9345 14084 15007 11814 14520 6506 2488 17123 9752 16040 15274 11430 14403 17597 1724 2789 12689 8327 6906 8699 7526 18559 14853 8663 1273 3987 14434 10893 12012 12934 17312 7604 18758 6079 14161 18959 703 17899 19061 6316 10277 11842 12940 16175 19071 2953 12470 7140 3257 6972 8690 13822 12609 5854 7454 455 16273 16272 15663 5385 274 4377 6365 3320 17933 5712 1956 8594 19331 19293 2055 2031 13885 16828 2385 6353 3581 802 13910 234 7444 4471 17039 9728 501 9775 2668 5740 6627 14359 4170 12539 19139 14757 12157 7052 15152 5033 9418 16490 18146 14899 13576 2649 1991 8830 5146 9297 5042 5357 10193 14772 8040 16997 11773 9317 16016 6277 6884 1963 15039 13526 17856 9687 15899 8770 15660 1386 4151 15913 11159 559 13698 1295 12405 16223 11305 1090 2507 603 4546 13990 14860 14338 19327 5971 19260 10250 1657 15501 4436 13310 2200 5207 2551 4364 16582 14934 5258 2555 15220 10351 5101 7941 8664 2724 8888 16525 15312 2085 1629 17249 17957 9151 16156 13584 14681 11905 17649 243 7104 15965 6373 10468 12162 9030 2349 12024 5487 7096 13289 6400 10432 10465 12013 17048 1516 3808 9713 18179 1729 13260 2915 3323 12104 6150 362 2771 7202 14268 11422 17785 3868 6107 1207 2959 17715 15992 8160 11416 9051 15982 2773 4641 11025 15426 6859 2260 17748 16036 4413 13878 8909 14585 14556 4390 7598 18901 3358 13466 17019 17096 3997 9277 1864 11412 11963 13771 9441 1342 6146 2234 3796 8726 1861 2281 11920 14097 4906 18170 17008 6251 8328 2866 14711 13048 15794 4568 6127 17247 12566 7606 18283 6059 1358 9059 6044 7048 1010 18935 223 1162 1179 9985 4453 14482 7634 14277 10506 6741 5316 3747 4274 10631 11111 3548 4995 11504 12613 4312 18338 14034 11996 14045 3256 2240 14228 9583 7544 1721 15871 4240 5564 12883 4387 13198 2762 8418 15057 8042 4678 17313 3711 12895 3908 12690 14892 3543 13415 3833 9210 8274 13673 14587 15202 14453 4866 18574 1254 6165 13615 16555 1322 6802 11536 17576 3530 5506 7770 522 18942 14574 6814 5661 9695 15479 14539 14183 11591 9399 6596 10014 11362 7155 3354 5241 1821 5817 10794 463 2615 1734 19157 11003 12668 377 5145 12033 18054 18865 18965 6367 4556 5017 13029 9088 18153 19194 14823 1762 16176 9882 14528 12254 8834 16166 10994 11829 13181 8996 18668 14095 11946 11293 1558 6429 925 11581 4460 2396 7997 10171 14150 18675 14375 2005 6128 3412 17519 15079 6281 10034 13425 17736 18822 6872 16260 19322 8857 17507 6307 8836 3232 6211 173 16971 2227 17553 13009 10692 9903 13156 13791 9331 16664 2074 10757 15294 7151 4246 1008 874 8369 1517 14846 13439 6444 6222 8114 12537 1039 5973 378 17908 4681 256 4759 13891 5102 961 17880 10734 11103 15189 13293 6580 13390 886 1217 7894 8139 1095 11493 18395 11964 17258 2594 18658 4630 11572 2940 6267 11191 14533 5009 11348 8118 4588 9396 2684 2578 11413 16449 6370 11421 2184 18775 6637 12730 8507 3390 17442 6154 13129 17342 7110 15235 15572 14862 3409 12114 4667 5760 18567 12052 17561 1332 6643 8501 17190 8077 8649 8978 13210 992 2309 6495 18770 16852 16914 2208 14778 12861 3727 4451 9120 5871 11284 2445 359 17672 17337 17261 10713 4775 9670 13100 16289 16135 15004 2314 16785 273 12783 10603 10117 11039 18573 6919 4980 8420 10005 14024 18767 6725 16726 570 1902 12088 11604 4776 3032 14680 14679 15092 11195 7323 4702 10022 2368 728 1366 16467 1594 10712 6095 4815 11983 9006 12682 1646 11223 1812 14954 10423 8635 8782 16295 5169 11846 734 2851 12500 18664 1489 3062 719 8844 1957 17038 16150 4290 7709 16487 11009 19427 13138 18753 12448 17903 9033 8625 10150 4656 4437 10625 11053 11616 18065 11864 14990 9889 2225 632 11948 11619 13983 10101 2250 15431 13262 4684 18619 10367 5036 11384 11496 6407 4385 11939 14226 3639 11891 5744 15418 9468 7874 13117 3068 2784 4166 2627 6129 9770 18736 16117 2235 13148 8068 10760 2256 7553 11067 15143 17188 11221 11026 16938 18724 15979 10184 13541 14629 12648 16845 5321 2384 11762 7427 1403 15111 2418 13566 8795 19009 19141 8874 15560 5834 11826 945 5035 2474 2247 11366 5157 2193 8858 14806 8719 4601 14204 16202 3924 3984 9163 15451 13873 10962 2211 1304 5429 12261 1905 17997 10690 13453 9828 17979 13504 14407 12120 2650 12402 10699 4830 7595 993 7291 16711 3183 5927 11371 6786 8605 17726 14303 13928 14921 3125 1074 16876 18761 17877 5581 12263 15829 1027 6880 19422 12096 5252 18794 7362 11845 2711 1524 780 8048 15987 2870 248 10420 8268 980 12896 17060 4380 8956 19060 5667 2972 14625 13700 18688 9214 9355 13598 15508 7719 5804 241 3992 4081 713 10298 10985 4610 4580 11431 11765 17181 2169 16549 9139 16283 6844 19431 7943 18348 3030 2905 3421 15191 11681 10870 7502 15234 8963 5605 17698 14340 10782 18445 16801 15021 11150 6757 13027 16361 7466 17611 4284 16776 3680 7495 9167 1257 1936 13468 3689 18240 5849 11094 14605 7132 1642 8509 15326 10577 12739 4154 6781 6991 2508 8464 18016 11852 7693 9693 13221 1139 439 13217 1429 6640 5771 3151 852 3650 12326 13680 4256 14473 4096 2279 5399 2132 15693 7420 138 11401 13255 14754 19146 2898 13577 13072 9751 18440 15351 5278 8891 11737 1447 12604 10174 4044 18934 16115 15930 15403 1341 3431 13641 3196 2501 3891 5749 12654 129 15320 3986 6768 2840 2206 10087 5567 10444 1608 11815 18602 12888 19073 12160 9189 2530 8672 6661 2691 1488 10503 813 14655 7562 4737 4521 7704 12134 7591 7121 12167 17883 8147 4682 5601 19170 12846 9927 19292 10646 16553 18148 10336 8293 7470 16888 8587 6540 8630 1373 1978 3929 4447 5361 10097 1129 5366 12513 9419 18674 16381 7710 2939 742 16046 8926 4276 18933 7653 16814 5913 12202 7064 4875 6833 13083 7883 10576 10726 2271 13920 609 7395 14650 3888 14230 7769 1727 19010 6390 16348 14842 8392 15300 2658 14457 6395 14367 2218 17535 7892 4714 14464 17754 13638 14785 17185 6183 14080 11335 11225 1502 10163 19103 1851 333 19008 15089 16398 957 1279 14318 8924 8088 1262 673 14586 17755 1697 4049 1634 16012 10172 4524 2864 16222 7887 8063 600 8944 13084 19178 6801 548 15934 7975 1206 14255 16043 1520 685 9608 15557 5631 2998 7290 7386 18936 15417 14596 17422 11849 16158 5046 18931 19030 16258 9802 17978 169 530 1761 11098 8253 14079 11140 14336 13341 10750 340 12674 15615 12005 247 18737 13398 6468 1909 7543 9567 17416 4529 14708 15911 19246 12137 12346 14265 13214 12892 19160 6247 16030 8638 17365 15825 12582 16134 17970 9877 5660 15592 11013 14657 18772 11224 6696 15662 6600 3879 10469 10295 5505 2621 11148 9970 7669 7359 3192 10391 10758 13322 9492 14369 12804 4903 303 2421 10689 564 2871 11019 2338 2916 7455 11706 14780 10943 14456 14036 8357 18970 13483 9616 5272 4424 14999 3254 13086 578 14317 13682 2545 12022 6536 3666 16607 7898 11562 5049 16383 7361 18591 7987 13911 12476 1501 19124 5220 12551 13647 459 5628 13013 11349 4895 8078 13799 6032 12141 7855 11441 17486 10134 3127 8465 15891 14055 7600 11237 16214 12688 14347 5062 11147 1811 12406 14031 1177 17677 7 1321 8281 8792 6566 17630 4206 8999 16373 11219 3977 8438 3932 9397 1830 18977 14740 11858 10941 12817 10133 11157 1250 7305 17481 19319 14833 3176 17453 17140 15017 15495 1886 11478 2655 7713 9466 9424 3919 9874 6484 7145 9761 2335 4631 10362 2387 18649 17059 1592 13507 17406 13025 13929 11291 19207 5163 17389 6110 8121 12276 2548 485 3157 12806 10180 4363 10244 3626 15622 230 18588 8662 5362 3812 14411 263 3524 3236 17530 2695 7098 14558 2694 8190 5912 4203 14879 11746 1355 2686 1621 14670 6511 3458 10297 14309 5300 1092 12478 604 10837 922 7206 2657 11877 11322 16091 7437 4109 9126 12511 576 9412 7004 9514 6280 690 14167 5392 16846 5542 9833 16661 2265 3300 19206 14062 16399 19399 6904 3100 2797 7684 14052 2641 3391 13452 10419 2666 10026 16070 13404 18268 15712 6612 6423 12923 5691 877 2489 16350 7147 8244 2270 4852 136 12424 6862 11878 11784 13449 7011 17418 2462 12611 3077 396 8131 16517 13426 7023 3045 7922 15697 12139 971 15677 12777 5211 9569 14158 18558 3424 5174 12400 10284 1630 16491 18927 2291 12972 11438 9971 1536 10363 640 6651 16483 11392 8410 9827 6403 18103 10328 11473 16456 14542 13298 12630 10140 8702 5783 4566 4457 13742 14822 18589 7350 3237 11084 16376 10345 16291 7000 6457 3365 18340 18582 12910 15883 14603 1619 11513 11460 18887 4281 2433 16984 7689 5824 9891 4892 9604 14010 12647 3674 4725 18 16578 2375 8887 18037 5884 16647 2902 5154 6619 3330 18088 857 10482 8820 73 10662 4090 9336 7899 3910 19176 15627 15279 10041 12603 9222 6805 6216 9408 1096 12926 11977 4975 18609 5671 4720 2889 11214 11143 1704 5164 5768 9721 15971 5074 11469 17043 154 5888 1401 11804 16803 17250 9048 19435 6481 11091 9806 18252 6701 6456 15047 15502 3701 2849 10896 3964 11131 18486 11686 4397 12437 4780 11050 19436 12750 9420 892 4499 1282 18019 18203 3585 13832 10075 1915 1395 8900 5294 17935 3550 4211 4923 6864 13195 17702 16901 14202 3469 3698 15792 18101 1073 17224 3170 14110 5997 17109 10973 16507 13573 14481 18205 16435 17447 8560 7506 12242 9708 8813 18384 19154 15480 7597 4697 5071 7077 8947 11048 8050 115 627 17346 15503 2186 13261 6877 14468 8576 17516 18988 6193 3103 1033 18280 14314 2077 253 11209 17485 351 1311 5132 435 15465 11993 7967 122 19188 19452 885 6858 2675 15071 5540 1286 9900 17790 14930 16669 8853 16014 6783 14446 12561 10787 4507 6558 369 5716 16153 9454 4018 7232 15551 1344 11115 6283 7057 2664 7668 4731 11058 471 8572 13956 3834 1849 1330 5898 12711 2994 16086 18128 826 12776 15516 5451 7912 8304 13706 13708 10416 13248 10741 2183 10259 17946 2142 3743 9083 7319 17351 2320 10583 10344 15218 8768 3882 1663 2570 3380 18090 900 17143 5015 2180 18544 14530 14979 9462 13047 10450 15160 11824 9636 13661 12281 11202 6660 2576 6636 16293 11721 13166 16193 15462 1301 8793 14878 4400 18850 7821 3556 18923 4784 1940 8493 9788 2698 6375 11452 13813 3442 7079 6175 16219 13291 14136 8711 14678 13489 13853 12650 5596 5759 16416 12969 9016 18951 11092 17024 19208 6025 18818 5729 12545 18549 18134 3523 12519 11919 17973 8598 4627 1269 18132 17825 18765 4153 6065 1019 18823 21 19447 8511 8072 5461 7835 12743 5354 13658 13950 6005 5162 13228 15731 16127 17728 19353 17189 18883 13203 16407 16967 15815 6075 2492 12415 812 11340 4446 5765 18635 9184 18654 7487 18257 15641 4868 5519 19270 16672 1319 11482 8034 9798 13150 9177 641 1659 7848 14569 12153 15915 9482 6433 11677 15668 13093 3673 5396 11045 11602 14240 16234 6703 4262 11360 14624 9074 16723 2637 9111 10346 405 9803 9595 6405 1124 16992 2743 17720 11620 14597 8092 17620 16206 5848 12386 8230 5579 11748 17572 9428 18797 10382 11298 18189 14085 3610 17370 611 13165 19172 8346 8005 8380 15258 7367 2362 19471 8206 1945 3059 17759 16063 325 11381 940 4008 1144 13430 4842 2532 18898 10597 17350 8033 19055 997 4517 1611 3385 6181 8856 16749 11061 6507 6174 2700 748 4146 6374 9520 4607 5338 11844 2133 13204 18919 17830 2690 3452 19205 4859 15184 19437 15033 2980 15138 11730 15433 18660 792 3730 9036 9152 2394 8430 19114 7194 3351 11261 10695 18832 11481 6230 7552 19164 1833 15537 3645 5296 5167 89 19321 17119 18466 13512 2509 15100 3208 9862 9832 9221 9934 18816 6118 8842 14112 3583 4403 3605 10778 12208 6848 9866 11014 18055 19127 18087 5857 4528 5413 17076 13636 15671 2597 3197 18918 10397 17199 11017 14350 7695 7691 14800 1573 6124 6497 3363 18661 5181 14029 8589 8159 14660 16137 15844 3527 14170 6347 15836 5135 8408 4846 11099 4897 10326 841 16940 12324 4064 789 213 8496 16745 1509 350 17219 17836 19243 18681 14722 6793 5020 8022 12639 11949 6250 8394 12060 9089 386 10032 16740 19358 16856 19288 13435 6380 15875 18726 15153 16354 487 8665 14171 4981 1931 11694 5577 15310 11296 14521 2075 7269 16879 5075 15861 15947 16302 8083 5604 18350 8035 8637 566 3336 6669 2164 10619 15574 15230 6744 12322 7258 10299 13023 1053 15519 3108 1220 7343 13419 17341 13065 6563 13650 12179 13208 13747 17013 9008 12358 11323 1948 10449 4772 4465 4649 12058 10526 1974 11491 17679 14614 13839 16142 1554 15330 141 8609 17527 12518 11208 13059 1535 18920 5676 5645 10546 16642 9602 15144 10921 6740 10658 1142 14213 2602 2957 1479 7216 10749 8354 8893 275 3403 17293 5651 16371 6630 14093 18020 10361 14179 6202 13134 4494 13331 19137 1275 5191 13845 2095 12836 7438 6474 3411 18555 1718 12311 11653 14912 637 18825 3750 16028 2316 1716 19020 2425 6512 6451 19494 7156 16026 12413 10368 12793 5320 12374 15416 14072 15445 13190 18499 1742 19167 320 14747 17032 16577 260 4411 8448 3282 17252 11534 177 1197 8942 17262 18986 11745 17977 10548 16169 10227 2253 19285 4941 17170 8205 3983 10481 16772 13574 1635 5092 3892 15617 6645 14428 13167 3392 8762 12905 11334 3640 4456 13634 17506 9929 11018 19088 10273 14254 11714 16074 6592 12490 7394 16907 7782 5643 7900 647 15827 9571 19201 10950 8422 6693 8062 12051 18711 17864 749 15559 6930 16138 9584 4058 4770 3340 17520 18814 13454 15981 3776 5649 11403 12546 3572 1076 17270 6070 5571 12527 17040 4268 2719 8163 621 3136 15649 504 5486 7252 10939 521 8825 8466 8412 7460 14042 1000 4265 2973 15162 15509 4818 14768 18430 3463 6311 1038 672 15682 8271 4644 495 5432 9774 8342 17654 9937 761 2473 17793 18708 12056 11957 4768 14474 6237 15993 6982 14141 16459 252 8058 7049 14451 16484 6896 8871 9416 5245 2865 16769 11489 8850 4326 8397 17603 11823 4152 7951 3842 2903 16734 18004 4373 10166 8222 3985 7263 7889 2795 10485 16986 114 5311 4572 143 17203 8452 12984 87 16733 17386 4266 11951 29 5831 4060 3969 1800 9238 5788 14077 1325 11679 12226 12591 17014 9272 6962 18803 17387 8284 7637 8236 13757 2303 12585 10490 13461 1058 16891 11474 18258 13707 13200 8936 10170 17694 18133 18891 9660 9543 1662 4798 18001 10918 17191 5494 17859 9896 9259 3672 11771 8209 626 12066 9707 13252 799 9209 14210 5302 13151 2293 12493 18821 14279 16224 14412 4596 183 2622 13843 9455 9294 1025 9283 8241 730 9487 10563 15669 11893 18738 3298 10926 8894 10967 9504 2439 14972 13456 1288 19223 9327 17844 15959 5425 4023 14775 18227 605 14274 4330 17290 2360 18715 3495 2251 4578 8402 1733 12328 8535 9632 4718 9739 9579 7485 18876 18169 17867 13 12396 16270 3230 2321 6357 6557 464 7373 10785 10476 13157 5148 11612 16249 15692 9032 1901 179 12805 159 14342 11871 17083 12398 7715 16893 14551 5960 18356 1255 15832 6159 6402 190 14560 12047 3880 17866 13872 10901 13895 15688 11989 14366 12194 14534 10261 4582 1539 10240 7615 10674 10056 14191 2063 391 15657 13253 9842 7849 1824 17873 10067 16075 6207 7285 11803 16296 5346 9114 10664 6091 18455 12451 18249 11879 5924 4724 7392 12770 11542 13913 5045 18551 13113 46 2624 5794 4143 2359 1658 17026 9959 5802 9168 8133 5453 11596 1792 764 356 11935 8128 11798 11848 9071 2053 897 13318 17974 16931 8772 3130 16239 13473 6348 2744 16860 8913 757 14554 12487 9109 6412 19041 5186 2772 6895 454 15626 14327 15702 2478 4573 7652 19227 2538 9888 15298 9590 6210 18105 11364 17511 11509 15998 5006 14379 8684 7356 18118 5504 7983 5598 13305 5830 9380 13409 18637 16922 3229 19410 17394 16194 16831 16548 5750 235 505 1412 19197 18405 9848 2026 2715 15586 12841 9931 17915 9664 5077 11690 13970 6379 18875 11302 11986 9234 1078 16106 11661 5672 10907 16732 1324 17033 12559 4156 6325 14943 16806 14245 3742 394 9322 7036 3494 10192 11066 16695 1545 1218 17125 9749 18885 6312 17983 7078 313 8429 53 5935 15483 14238 19397 16500 18902 13000 11818 14187 9753 12113 6366 4940 14449 9480 11417 13580 14837 18423 15354 16653 3105 18178 18487 6384 13997 208 9586 2496 15171 10023 18225 19391 19477 3998 9699 8404 17437 15366 1706 9098 6638 7489 5409 7059 17751 768 3174 8897 15371 13309 6081 5987 13963 11860 8299 4639 6722 13674 3975 2985 4101 1030 13365 4107 16977 4216 2630 3940 16913 18038 15563 7767 19183 3140 13537 18809 14583 6132 9830 4626 372 11605 7990 486 2370 7631 3316 1998 14208 9039 5856 5633 12075 18669 14716 13451 16403 4043 1313 2035 7599 2834 4198 6203 16316 11512 539 9791 683 10480 5728 17744 9531 1208 6992 11306 8805 10269 1597 18471 16590 14648 14668 13402 1187 13702 2983 6766 18215 12469 2365 12726 19108 4355 18326 13143 16583 14511 11217 16248 11215 7215 928 15350 18230 4711 5027 10047 15653 5597 12599 7561 3658 19384 6266 10589 11675 11911 1082 265 10332 1323 1560 160 3241 17229 18490 4438 16004 8067 8013 13326 3374 18570 805 6857 11270 9738 18956 19190 449 17146 14100 15185 17714 6213 2136 13243 3467 5508 13340 8194 16546 19152 17734 9058 2147 19299 6526 587 3466 11465 1385 4382 5876 9776 17482 11204 16822 10522 3580 13591 3437 2426 12568 5134 7139 4033 10128 7722 17584 4082 13934 19001 18537 3970 12589 15571 5620 5535 19070 12780 14168 5501 15305 16125 5944 13683 15132 10045 7335 8521 3419 12426 15050 14440 1365 16238 17568 14861 596 1246 9267 18845 2333 12531 15830 2517 8808 13612 8717 1694 5475 756 17268 11543 14958 9872 5907 15632 13178 16073 12101 15857 3564 18147 3234 17419 1925 17110 4479 18696 1049 19098 3677 955 3165 15777 15789 7796 6974 11129 10533 8749 19063 13463 13225 14233 5940 11146 2443 3843 16709 14424 11754 4130 12677 4870 17831 16279 950 13904 1788 10054 9018 11900 14247 6724 13144 13014 15075 10800 9865 17475 1236 8319 13281 13909 15884 5591 10599 11350 15238 2741 2659 11285 9837 13377 4880 3811 19440 11958 15584 13699 1151 15862 12891 14380 2189 2395 11913 6758 11328 13842 11995 16165 6902 12116 10119 4908 3441 4840 12267 13524 14118 15346 18411 5406 9880 16837 16868 18531 1284 3806 8723 5144 10265 3348 10920 14829 10096 9850 11373 9712 212 10046 1730 10535 8575 15441 18379 17320 1582 8320 8935 17681 4026 3903 11408 6513 1224 8055 16344 2122 6739 15251 7779 7200 19325 5825 1474 393 9740 18756 16593 6731 1170 16915 341 2557 16425 1518 14532 8616 13810 4309 14332 11165 2091 5736 12649 7346 18728 12321 19186 7195 16433 8676 13781 19106 14781 7593 17325 6659 10271 2948 5206 18066 1110 5706 1441 10791 9188 3490 17723 10716 8622 5939 15635 15725 16960 17733 7864 14423 7446 3110 12955 18421 3016 13988 41 7832 15242 669 5619 2918 18386 12502 13657 1763 3425 12597 2582 7082 11472 9133 17356 3751 16959 10248 4991 5282 14209 1107 5793 14470 3840 18298 11537 18273 318 11236 4886 12975 16684 13238 13866 17635 9625 13940 281 3830 19274 14505 3373 8245 5637 12838 12607 9694 2546 9883 17813 9790 14863 9105 12278 2713 8640 13517 17368 1363 6514 7465 9309 4949 6750 9815 8228 14991 5885 9737 18365 15533 15046 16579 17774 11057 16481 1781 10812 11386 6648 16089 11193 1219 9964 19215 6117 18145 12456 12163 348 9241 3915 14864 8377 54 18716 8312 1494 178 12155 10209 7022 14570 11149 13924 1664 4937 6908 13338 18460 16397 5576 11747 16698 1739 1337 8648 8396 3142 17081 2459 15778 12272 2495 4833 2764 3540 16055 17150 4715 15541 6531 13725 10221 4482 19082 14263 6182 3097 7095 5283 38 16276 9170 13833 15180 10100 5262 16406 5874 14691 13521 15499 12663 11639 3741 18584 15567 4458 13705 13348 4055 9855 12536 698 6009 6796 19340 14301 10109 1136 12904 15096 6499 13746 18307 19462 18618 9110 8732 7972 2307 1071 11789 1623 11379 8197 9062 1881 15087 44 4084 3178 14339 4381 17329 15494 15195 4962 17926 19466 9939 13565 1158 15888 17010 10845 10663 16789 16504 1067 7262 7154 4303 16978 16319 11433 12848 14054 6167 3717 14690 19065 282 16657 18410 10410 16612 15552 14295 6050 8826 9683 13918 8742 10257 14738 1815 9027 9223 14392 17902 5531 14733 7960 17449 9819 12355 6907 3824 6083 18925 8487 1415 16006 7676 216 3353 16105 5333 6013 16149 16586 16933 5616 9484 15779 14983 9118 18943 13797 17860 12290 18110 13028 3596 18846 1195 15414 17213 13496 4148 18329 5714 19105 2558 1380 4466 7125 5315 18127 16360 12535 6385 6593 11698 14135 12521 8992 14447 13999 14113 2079 11734 11796 882 17772 17640 9038 4977 11052 17563 6589 15991 14028 16623 19296 7528 6103 1537 6948 4454 19123 7807 16346 6078 6098 15308 8908 18684 10074 6226 17495 16019 13925 4723 16855 13099 17643 13575 1423 18511 13595 10641 11093 13668 147 18768 2170 14702 11554 16547 13182 14855 8187 19406 11657 14132 12441 2749 9100 5814 4012 17848 2923 16909 5208 6769 10804 2858 3213 17722 16839 18304 8601 434 2619 5686 3460 8748 9270 10086 15865 9183 14414 16631 9206 10708 13553 4298 17471 11127 7871 3816 15984 2620 18432 10740 8208 18857 18188 7508 10062 15597 9945 5626 16042 3867 5983 14576 18259 18083 16297 8220 6330 13656 699 4388 14915 17623 3335 8539 12908 10981 1238 17618 8946 7190 6989 15856 4571 10803 1807 10396 18349 12952 447 2146 11248 6584 3384 10018 14705 15323 9966 3145 14940 16576 19085 1476 19000 5741 16646 11839 7937 10970 5578 353 10437 5233 6398 3637 15579 5920 11037 2816 4936 17053 3487 10784 8383 11064 14335 15918 12189 11172 17928 18964 15182 7521 18752 11351 4856 9857 9836 2805 16144 18926 2249 13564 10543 4854 17402 365 17472 11751 709 15924 13316 6942 5226 13890 4922 18422 14759 17839 4421 5895 14225 7341 3150 6469 17281 2626 23 18747 16877 4651 1369 13557 2729 9194 18496 12452 3916 12497 4293 11709 1111 10199 9666 18703 7019 204 18214 3735 2157 3706 9843 13391 18213 1637 1678 9773 6003 19237 10467 5308 8599 4594 3905 17046 18047 6764 16257 6232 84 16429 3189 1382 15776 15267 7273 18077 3307 643 478 36 16 19433 10196 8712 5624 302 18436 16784 8636 6572 4051 2400 11868 11133 10922 6954 5126 12395 10935 12924 7718 15575 7171 14600 5489 18076 10303 6943 8914 17423 10632 14883 5331 9467 3835 11942 19002 6850 7897 13303 16975 15382 7837 8679 1765 488 15879 1211 3980 14932 15315 18521 858 4602 8123 39 5083 1340 2801 4014 10898 1699 6036 17898 13981 1079 7016 11268 14536 12359 15241 6714 5203 15469 16035 14402 5305 1018 2678 15449 13602 9545 3379 8405 17729 18115 16817 18506 13669 14618 10154 16184 8444 15527 18374 7872 7280 18441 7026 3817 3757 10090 12247 10151 15393 18890 15535 3231 2295 5353 4968 1775 16780 3010 5766 10153 12731 8837 7211 1264 14907 30 15340 13353 16468 5639 17940 9025 14284 4693 7220 11151 1226 5773 6851 15847 3268 6922 2310 18362 8413 11020 15764 6087 5777 10959 5248 15444 8374 778 11625 3007 9269 2448 804 1525 18718 12921 3856 2935 18031 6577 6534 1528 14649 5143 10938 1615 7313 933 2814 19481 2533 19046 6779 2241 5214 6492 17513 14889 7649 16680 13681 9771 16471 10126 4542 6002 4817 5194 2963 18151 15916 14049 11647 18416 5930 6958 9300 15936 16324 3191 17885 6153 5821 13764 16823 10112 14696 5792 15616 16395 6869 2647 5433 17504 16744 9372 8950 5197 9245 12624 14764 9667 787 17585 4799 15931 12306 18200 3087 16632 3622 2248 13508 8781 6988 8279 2519 2929 8119 28 10310 3248 215 7959 14652 17599 13849 13302 3819 8747 9678 782 2058 9498 4204 18322 10570 6538 13285 10914 15482 8923 5332 8173 10409 16301 2822 17183 13750 12074 163 2162 14360 10788 18204 10429 5356 3046 4872 17668 17154 1259 3740 11347 15914 4073 10501 15384 13272 2082 9452 2406 12548 8586 14227 4709 3688 8482 16203 12492 10204 532 2305 12714 1239 12206 12042 7157 1209 17588 12454 15240 1272 17764 9560 13788 11926 4676 2601 15485 17141 7801 15435 16349 1510 5471 18709 10806 13357 9541 2151 1063 10458 2790 17138 3211 4577 3798 18831 1759 9553 3462 4174 14761 9136 10061 14968 13820 7735 11256 14619 326 17610 3401 16886 17273 11410 1710 276 4957 872 9723 9696 9698 16482 10494 1166 19110 19251 10559 8490 2746 3515 1486 370 5467 529 10123 3214 7486 1084 1731 977 6695 3080 3670 8597 8565 7298 7184 14719 1691 12223 16756 18717 8340 3160 13184 7277 16457 14197 11623 6477 7124 18909 13670 2554 12225 10354 1161 11124 15818 4497 8488 11825 10224 11521 3635 16059 4278 6530 11260 7868 15081 2747 12323 15069 13275 6752 1911 6409 3029 9325 2214 5922 13989 218 842 9871 9445 12084 7895 4717 3759 2411 7843 17910 944 6420 2423 4836 8802 3439 8563 2600 15243 15966 6194 8729 6268 17675 12472 18094 9153 16439 15824 12718 12269 480 16827 3240 18680 14849 4802 5549 11468 2909 3574 6190 5618 17971 6454 15989 5872 18610 19116 17238 5953 32 18556 8518 6822 10924 18062 18073 10495 1054 10816 4475 18805 14645 15885 305 5499 13237 8532 11494 5641 7686 12344 18353 7439 6027 17862 279 2563 989 18840 8492 10904 17101 2131 13927 13793 12757 9281 18892 915 15073 15178 12336 1526 7902 9358 6774 2223 10645 7083 12831 12168 10798 8898 6527 16434 5088 2128 4249 14905 16864 17591 12292 14345 10765 17494 16867 11158 2567 13693 13499 12430 5434 16580 13960 13948 18368 10065 10987 4824 6332 15381 8774 2839 4080 11407 4912 16088 10387 18780 12127 18766 18868 11564 3375 18743 9225 5257 13030 15356 783 18051 17478 7223 9020 10859 17321 18508 2328 1276 290 17065 3215 4071 4563 16045 3875 7283 5426 10000 6996 18201 13851 6372 17045 5664 19004 5187 18501 675 4971 15493 16384 11755 5745 16807 4813 9899 4597 4754 7170 17821 17581 9233 7321 13965 17750 17806 15108 3853 3661 16033 4065 4958 7519 10858 855 9812 5176 17990 1249 18444 9887 1435 19048 15015 4464 16120 6401 1329 10246 7731 1961 12068 8276 17912 94 3094 19147 9650 17763 15228 13329 13785 12898 9347 17035 9472 16438 7538 4713 15165 18396 3974 11515 3035 5630 12140 12899 2828 16635 18569 4275 2767 14589 19470 871 9381 10130 14039 9094 1874 12244 6185 14602 15546 9341 324 15091 1601 2568 16660 2054 56 1661 2593 6994 16815 19490 19455 15103 4423 14622 17131 5636 1014 11123 12894 5752 9005 12199 16976 2989 4095 1750 15734 4396 9374 15679 5694 13852 14628 8606 18963 14063 12679 5976 12429 10671 10121 13218 3398 5398 3945 6084 10383 16628 13321 6279 16366 3552 7572 7758 4898 17134 9425 16405 8832 9540 7880 19277 10908 14675 8115 13834 8710 3404 18714 10670 9417 16458 3464 12170 14911 7500 1885 19166 3713 7058 17005 18099 12992 3871 2078 18138 1414 61 17428 11650 7463 6644 12982 6166 15517 8180 5731 5538 8355 11397 297 3884 6950 11274 667 5115 15518 5721 3906 7838 8602 8510 19135 17479 17760 9701 5090 18361 2289 11551 12900 8939 9244 17235 10542 7938 5918 1946 18025 1017 2798 14346 16929 16018 12847 8185 8583 14243 11074 9629 2710 3202 13356 16215 9334 752 3139 5089 15703 16808 18538 5151 13159 2083 2318 4704 14337 17892 11866 18034 4558 9361 3088 9716 14949 8895 1586 10001 15107 13897 12467 13073 10258 16720 9757 7226 8903 3096 9053 10969 1159 678 3073 4430 2515 7846 15112 19175 18483 14198 17087 5700 4984 10883 2382 262 219 17269 8476 5662 11036 16666 638 18723 14512 5622 15775 6133 8168 5761 5653 3914 13622 12230 16265 4335 978 4292 2219 18699 1485 4042 15438 16865 5701 1444 13395 16686 16991 16284 7513 9128 6903 13371 14260 13858 3286 9389 8296 16640 7421 16773 7113 5873 14881 7345 16731 18186 15338 9668 9671 18792 9165 13777 19219 10302 11463 887 12071 16603 17849 4297 12310 4933 5718 4795 5523 8848 10995 1375 13442 1216 13136 5275 17752 17587 14726 13300 3291 13413 3219 2105 16957 13922 12106 12681 4442 17021 17907 8713 12171 7370 9469 7287 9631 18357 13722 3329 4729 7724 696 10438 12788 4543 7413 14623 17762 2126 7706 10558 10564 137 498 8091 10946 15811 8322 3950 16051 8399 3971 10647 19432 15587 15360 9786 6 1795 3224 16513 11740 17559 1665 2992 14601 2322 14610 11188 7102 12021 7440 17352 2389 13058 8109 4703 948 9429 5532 3228 7674 9256 1091 18152 3810 364 10413 13936 13108 7607 5080 13500 11833 5742 4589 16461 12410 1477 727 2829 904 6544 7452 3210 5682 15291 16567 19425 14156 16464 16904 14409 10881 10202 10717 5668 17544 110 19099 14280 5029 6052 11884 7086 5606 12343 16788 17001 17954 8760 13081 5726 856 13957 17664 5277 5720 16312 6728 11448 4767 2725 2652 2820 8937 11446 4376 1348 14217 8400 7856 16340 8543 10568 9346 11648 189 13763 19484 18124 14541 14311 9252 13147 12371 14416 16251 7024 8484 9998 7191 17055 6485 4976 5002 7167 6094 12797 17071 15580 5860 18058 3269 16363 5850 7651 14732 15882 4241 4551 15837 18916 13942 10682 14075 11503 11444 12109 11763 7450 12418 1540 15183 3716 8828 2531 7017 14175 6915 13979 7340 3854 18057 5502 10380 10986 2642 15558 7006 12570 9276 4816 16401 13724 15016 7573 762 12107 941 15637 2343 6229 10649 2661 19015 650 13520 11587 1980 11881 3869 1294 1465 11160 2758 8087 11519 15301 4786 17373 15097 42 4116 15733 7641 9481 9505 15470 14503 90 10173 7915 8313 3876 19148 8653 5697 14418 19281 7069 17364 17078 11662 19383 17058 14043 14553 18464 6021 10158 13031 12098 17028 658 3944 8258 10738 14291 684 11682 9022 11286 10364 8415 14514 18454 10805 9962 6586 5411 13351 7747 117 12365 7529 7772 4331 17987 4746 14760 12440 9686 2861 12694 2331 7511 1728 7851 119 5064 11559 2800 15687 2993 2460 2500 2266 10515 14438 15977 6205 4537 17801 3203 18116 16256 13130 12852 12853 4757 14290 15624 18812 1569 17383 3825 9904 13416 7230 18975 6383 12753 11187 4122 9684 4002 11113 16087 6503 15765 15011 167 17152 4013 12778 2804 2143 15277 7670 15953 5023 15723 5897 4955 19163 8272 9968 12110 18810 9002 202 14229 14984 5472 6286 5360 4847 5514 8917 6340 307 8604 16054 3745 8873 15473 13219 12944 2125 10448 16195 3733 3797 14109 2586 18097 8047 18370 7327 9212 9447 8692 1985 12971 15424 6708 3420 19290 4634 5889 15835 17051 10474 18277 3233 13671 4207 13410 4108 3921 1799 9915 15287 18744 13070 10228 18415 4076 3753 17259 7587 19386 412 17661 11767 2777 11932 4317 3573 7514 9175 10704 10634 11705 15093 13403 18211 7551 7349 15990 9532 13912 4628 16842 17799 10017 11396 7790 9273 12746 77 10370 10313 17739 6730 16076 15373 6756 18606 16096 15428 8074 16409 5444 11812 2092 19366 19454 6879 19144 9426 5094 9257 18281 2194 10445 11231 18367 766 13729 2220 10352 18907 13431 1547 12111 17421 3194 10400 13711 6754 3807 17279 3561 15647 9633 7129 6234 7882 1707 18940 6641 1266 8810 9451 19086 11375 1859 10862 14639 12257 4277 13161 18069 17466 9254 14682 13038 7320 16050 9820 14 7803 10711 15367 6599 6799 9787 12366 8053 6269 9123 10401 7001 5374 15325 16594 8787 10120 4692 7640 5754 15700 3738 2216 9196 9920 10179 12064 16566 5150 8683 830 16235 14859 10379 7183 16098 5081 10928 14071 15529 14517 7136 13547 7881 7091 17182 9743 16254 3017 10724 13478 10852 4652 1120 10446 15986 17306 2255 8849 2946 5522 9476 7402 7878 4250 5395 12754 10802 1790 2302 16305 3086 15960 18491 6254 11727 7953 7120 11703 14296 19317 238 8122 17198 8153 13460 17467 4712 16090 10633 11275 10011 18545 5905 8738 12716 5559 3954 6464 1164 9271 7711 15654 9360 438 1760 4264 13107 5168 17186 9908 1556 7995 14298 12769 3009 8823 6631 4664 4609 2113 12011 1430 8921 14573 3766 16911 16629 7961 11786 682 12303 777 10868 10823 7267 4915 16154 4841 7229 4157 15375 9054 10165 8308 14331 4261 15783 7028 1897 6798 6358 16062 16533 962 16318 4474 14906 9923 14751 9215 2919 19475 12920 13545 15412 18507 10984 15896 6272 9926 1339 614 9181 11573 11409 11691 18210 5104 16689 2084 19469 723 13332 2978 7094 18187 19196 4129 1351 10892 15935 10301 17457 5894 8585 15054 5608 5910 7203 744 3724 13231 17009 19057 9793 10538 6257 12177 1791 2875 8442 18473 1408 17456 17073 644 1983 181 6835 2339 3371 8629 2106 918 4034 6101 16774 8971 6363 8443 19159 11713 1376 8573 1445 986 18451 9863 10630 17307 9330 18778 19286 4079 5544 895 8698 12132 16562 469 12959 19360 16494 8951 5515 8218 14920 13787 13317 9647 16898 11756 60 16551 4354 8983 1882 15605 8701 16834 7324 1578 12133 12651 3935 4635 8348 9356 12159 17450 8608 13380 429 228 19081 6382 5173 14973 16655 2521 13662 19446 16894 15049 3078 914 11716 16648 18583 17913 10975 11181 17756 401 5341 14748 6751 1157 1296 18826 14577 8478 15383 2799 1016 12002 2917 12360 15806 4103 7193 12473 12369 7834 6699 124 4960 301 14762 171 10838 1271 2549 3627 2297 8993 15706 16781 11992 8254 268 512 2027 12590 9014 3928 9807 399 503 18628 2757 65 1213 10135 10851 18024 3262 11618 6542 3784 16753 17607 9092 18492 6102 9983 704 3144 17305 18437 4587 15867 8318 13066 12188 12942 16819 979 11525 16857 1493 9073 12798 4954 1505 17217 1338 1148 3226 9307 8150 1402 9890 6973 10381 3653 19415 7857 11621 3804 15782 3085 17787 18690 14782 13304 18015 6997 14105 6416 9081 14004 8537 3272 6635 924 10771 493 16987 17294 9463 4384 11142 9102 8469 14325 9192 9682 19309 5810 5099 12125 13480 9552 18798 9510 11282 19375 10095 5809 9400 7423 2899 5985 18706 19300 9947 2611 7208 16812 16556 18075 18191 12138 10567 10669 2485 8423 6546 19067 3041 8003 6887 4181 8965 5470 4603 6828 9603 17330 6293 15770 12567 18666 18952 12785 3356 17378 14441 5536 7741 6158 15332 10925 553 6106 6482 7308 13197 4541 1336 11107 724 150 17732 1907 4308 9240 13407 6892 16167 610 1417 11793 7138 1903 17344 6952 13768 3508 8226 9591 13952 10700 9563 10532 14513 19382 9202 15402 1684 4257 9411 16759 6028 1798 15442 10594 14816 5690 3598 1102 13818 17433 11783 11729 11128 16179 13233 15638 18498 18984 8307 19131 16161 18409 18351 17113 1804 15318 12557 1605 19210 2102 14467 5553 15005 12079 2093 14431 9060 2697 8103 16743 879 6554 12652 1527 18904 8475 3063 12974 13581 10422 18603 4789 17388 9191 16446 12802 6369 9517 11526 528 15689 11210 18784 12564 1192 5611 2275 663 8061 8326 8450 15118 12766 7295 11695 1741 18992 16722 17265 15421 2182 7694 10456 18196 8790 6208 4179 13169 12038 314 2856 3171 1300 14460 17538 18547 18698 10718 11363 8215 14397 18238 19497 14590 14549 9956 7578 12143 5594 14377 18269 12307 4988 9914 4405 861 3957 15 13494 16307 9116 3496 19357 9599 10702 11304 14607 15309 9534 7948 3822 6522 2671 745 11382 4134 4821 2584 8491 17725 6810 2696 17338 15860 14244 3647 11312 2687 9999 6532 4418 1757 7950 7955 15869 7661 18999 16840 13665 14615 7825 10143 5845 5111 8232 12782 5299 12086 1384 17214 3896 8073 15059 15949 18364 911 11687 17164 12198 10242 18336 14194 17434 12224 3606 11774 10106 7702 18233 7759 5054 7435 2969 7971 9144 16420 14918 12505 4829 19165 5840 8479 12496 17925 5198 6486 3656 13401 10124 7750 7645 3042 8559 11007 15461 14839 2609 9275 8406 1904 13019 2527 15694 9427 14059 3470 18407 17743 18156 10251 8503 10274 2781 10484 4970 11290 5584 17646 3447 12376 15926 172 6376 5915 3746 19302 15944 4600 5528 19306 18882 3406 13386 19361 10835 2968 17958 14051 311 4316 7764 17992 14561 10320 12252 18685 19128 7159 8233 10648 12610 2455 15749 12576 9004 16906 8765 15133 6155 6560 18911 9287 17099 5561 15942 4705 13592 6609 18962 4491 12090 2780 4548 294 3726 19456 16818 8207 6156 11692 1228 13447 19111 4938 18601 6212 16692 9905 6498 4625 7904 5107 10267 616 5152 3838 11772 7071 200 12614 249 11790 6191 5165 13337 4650 8968 6677 2908 18314 5550 16121 7810 9205 15673 7739 2188 10865 13748 2427 10818 17476 13774 18311 13057 18112 10292 11631 8257 10353 2025 13689 14516 6163 3067 16794 6622 1277 12180 959 15556 19039 14103 13115 8056 9444 11216 13529 5048 18366 7660 14343 9548 2883 312 6209 4831 1514 14023 5348 11568 19407 11802 12653 13560 16659 10279 2464 15208 11176 11606 8349 15254 17699 15744 17816 4727 6521 17090 441 11249 12277 12384 5239 17135 1532 12367 2404 10144 5864 13414 6882 3600 5238 15505 13944 7092 15425 12183 3251 3720 16871 11917 7458 1020 7707 9702 4773 1126 8252 6422 15129 12118 2999 13643 2628 923 16118 16394 1616 19236 14117 1620 6122 11622 19023 187 4320 2930 7072 16755 8171 11002 6438 3429 3936 17400 13623 16083 1302 3563 13692 8297 12530 15798 17023 8221 18800 1879 18683 7940 11843 6837 9479 13684 4336 18270 12595 17044 2137 4085 8051 16489 14324 1924 5493 18465 16936 387 5369 2422 6421 3164 5657 693 16587 17226 3525 11497 3722 6378 2048 5079 1801 9839 12692 14721 3718 6995 3768 1146 14507 7970 2572 5573 17953 11173 12789 19231 3541 7429 10329 1379 4323 8761 2514 10373 9067 7301 2904 13067 6689 10887 16707 9246 7781 13324 5614 3844 9231 6218 10288 4643 15735 3897 5053 6502 7178 19269 2585 9096 5139 3451 10776 6602 12414 17179 11873 6089 9179 9558 14143 13949 16412 9573 14509 3579 2287 17097 14978 14634 201 2436 9313 6126 2353 9615 6417 13688 12843 4074 815 10848 1686 16475 3381 15999 17708 16479 4287 18161 8089 6885 5028 8365 7806 19104 3652 8906 7581 11106 18131 14847 16973 4965 18663 12216 664 19021 13828 17617 5329 9422 15612 767 10333 10403 1305 14312 5722 8733 3216 4793 13869 6679 7559 16999 14465 2742 12865 15475 5025 19035 19351 330 17811 12606 3521 5416 13687 15619 8264 15164 19228 9941 9203 17704 2479 6716 292 12446 18402 5056 16560 7066 7976 14974 13153 4340 8256 10525 8578 3120 6709 15598 19313 12930 15377 5240 18769 2937 5474 8260 19483 6813 5959 11120 2390 13440 6389 17776 18142 4305 12494 1165 4180 6938 13418 16008 10614 16109 16261 9148 1844 5708 9506 17721 13728 14021 13087 2938 15946 19404 16609 14200 16329 16060 15874 8178 18702 3721 2562 1393 18141 416 7569 15951 8957 15335 2522 17942 10338 17874 381 1572 16539 13731 14836 12829 7318 4219 705 5554 18785 10175 3159 10435 14406 62 12945 11083 1466 17886 8386 7681 15169 7927 14529 15212 15922 7542 4876 5388 5890 10443 15147 7363 12593 16298 7317 1212 2168 15400 4946 13244 6288 13139 12832 6406 5989 4017 1171 11232 2510 17897 18522 6932 7858 10280 15161 6510 13685 13423 5463 17852 2571 8759 11437 17976 8449 9703 16447 5445 5038 2544 5287 11574 12839 2056 18425 13855 19179 2542 18160 13008 18427 3555 7503 18804 12763 1169 17105 17287 7648 14988 16947 4740 7723 6562 18393 10039 4926 9592 18751 17938 2110 7575 5586 15347 18413 4306 18456 6113 5640 7005 7564 10036 15797 8203 5001 1533 5004 14831 938 13816 6827 15715 8642 3400 18678 9326 4253 4916 14413 5397 9916 1426 6201 16993 3456 18398 186 17956 17980 8789 2534 9364 1565 17986 18265 14475 17777 10651 4251 15257 8520 8619 15690 16031 8330 1335 4344 15157 888 4025 3188 8483 3813 4120 17469 10770 2179 12288 2737 4420 7791 17372 2090 10880 7430 3092 8741 1484 13487 3109 418 13915 657 8409 840 258 10427 8137 14469 2739 14065 16972 18828 1970 3976 10057 3511 9704 16445 11414 10992 1088 8075 6588 5110 12732 7447 11518 17200 5468 5082 14221 7636 18315 5377 13475 4486 7366 9401 16981 10276 11710 9527 14609 8362 2927 18239 9556 3168 1992 3264 17004 4178 9055 14390 3571 6705 11030 6969 18557 15752 4291 17817 3520 1001 7736 11777 18866 5692 1877 5051 6598 14640 868 14917 14476 1243 6447 13972 5869 4054 4199 7662 12061 16505 16056 9398 10077 5450 1603 12659 19155 2847 12719 4270 496 4476 8515 4530 2559 5715 11038 6264 3685 17911 11254 7727 5279 1580 11247 5247 2361 7926 11522 13775 15514 17204 3367 8773 8440 17474 7788 3922 1758 7675 7142 18482 5603 6632 14715 8250 17766 5795 1845 14776 16897 13464 4159 6020 12150 16362 6108 16968 7496 5763 2748 12212 1449 4881 15452 3775 14259 10839 16372 7137 5456 18972 8677 18990 3968 8474 6138 2986 8899 19329 9229 14620 13062 6706 16182 3820 12749 3887 286 14572 19320 9140 8321 2135 10486 18480 10536 10388 16574 8552 2830 14828 7498 13769 18520 16512 13306 3528 3952 18634 5529 9783 11707 17022 15219 9585 1199 19032 9785 397 9486 14003 13312 12341 7504 371 6360 12146 12483 7991 6760 12687 5159 15369 5764 5687 1117 10334 11207 11701 13985 8064 19029 3702 13212 14237 11652 8300 16387 3357 19335 13101 8433 2808 14218 17955 1878 11034 4191 7754 1932 18650 16503 3095 15303 17797 7643 2859 3567 6971 17166 2153 3204 6392 11882 7475 11531 6430 853 3771 9846 3432 19169 19441 16729 13579 19187 13992 18938 15895 8027 18694 18830 18518 315 12781 5757 16696 6460 1149 3779 9821 5836 5415 11973 22 17301 12886 6721 14676 15389 7738 6886 443 3000 18296 562 9581 13516 7737 846 13975 3546 4614 10028 15115 6726 11186 8633 16575 14743 6170 18682 5309 8052 18967 12997 8582 11400 8447 5024 2734 13603 2347 18081 15401 8938 3609 19129 6978 531 2140 9320 15458 17260 9794 16317 15094 11054 2896 8788 11015 7338 7479 1072 11922 15613 4624 19338 6450 17334 17666 9496 8933 3116 14858 760 13578 810 9982 12657 17145 9021 19378 13334 18941 4005 4188 17622 2991 3949 14488 5866 16053 15917 10655 2701 18700 2288 1383 1034 5938 9518 4889 13762 16460 9976 9353 16299 15804 7316 13096 17592 11390 9497 13867 12065 829 15771 17565 11974 1240 5733 14803 5449 4099 12173 7936 3934 8011 16925 6162 5424 3780 431 9940 5254 1687 17431 795 12091 5863 17244 4734 11081 17578 13280 12767 15674 6949 12420 3472 15344 19049 8880 1934 6000 2466 5344 9357 3966 1649 15408 16023 7608 18035 4365 10990 18871 2340 18206 2879 6939 9046 18173 9315 10703 9582 11859 17951 3994 2974 18185 19072 10581 16469 12815 5891 9409 17770 9727 7365 9502 16617 16367 8373 1003 13445 33 17547 19213 5568 12932 14901 4393 14825 11912 12965 4669 10844 17786 10294 15226 9274 16600 14050 16408 1906 8852 4617 13932 11467 14494 10573 14753 12962 7274 4901 666 3752 16824 10735 15026 7850 7945 4722 11411 7169 8179 7752 2324 5753 15892 18593 8778 9535 6924 4125 11593 16478 13723 4565 14902 13635 14025 6337 18777 3592 16601 13396 14824 16331 8445 3695 9402 16702 3158 8132 2975 18009 18982 17380 16122 15289 145 10372 568 12411 16210 8645 14372 19365 3222 17296 7743 12368 17292 7459 19043 7576 7594 7247 7256 1682 12715 4832 7657 17332 4110 12637 18433 10953 17524 3638 15193 16652 9369 4879 1210 19265 2901 4341 5675 1291 10421 2148 8961 10012 19451 14206 17573 10894 17405 15306 5000 17256 13287 9755 5335 14588 18412 17853 19303 7968 16896 9808 5256 14008 16884 15148 17377 13758 15522 10743 2761 3169 12256 11200 7630 9946 3953 14980 9576 18278 14253 4224 12702 800 13400 19443 6743 12184 13479 16389 17690 3862 236 13886 9363 17981 12580 2712 15023 14041 17652 1233 9564 16311 3962 3739 7012 3794 6788 17245 13548 6119 15866 17845 13476 9958 11424 16921 14544 1643 10457 18282 4569 7333 7708 10621 5394 10642 7903 9158 13055 4302 3841 16724 12755 13535 8618 8026 1454 18382 4222 11442 15084 76 2334 14328 5919 9080 15467 8863 18380 12555 6152 5244 2751 4205 6085 18063 18036 376 11086 8975 7422 9835 12409 8667 13003 11699 16103 862 16322 12973 12283 5161 3132 7817 10157 3099 5629 13173 19418 4838 14669 5746 16027 15223 2537 976 7053 6852 18182 3709 6227 9858 12906 8486 7555 5236 6313 963 466 13982 18113 4272 5200 1968 11906 1394 2011 14344 4771 4544 10652 11689 8054 6520 12656 13654 10264 8696 8869 13469 13493 15974 17952 4545 14580 2681 10637 12633 4778 18164 18453 11575 11928 10255 18299 4687 10321 10979 16851 6462 86 3079 11235 12641 13385 8282 3687 7030 10500 6168 16643 11262 14976 11685 17689 3185 1624 11420 3899 11299 17639 12354 7165 516 6282 12880 5780 5844 9901 3162 14053 13892 15870 18524 6449 19045 9143 5041 6339 2099 1498 19090 18209 13098 12873 11357 13010 6452 18468 7443 10216 4173 3734 6634 19500 5774 15588 8508 6073 16795 11132 12302 3668 970 3050 6567 15941 58 11885 15838 15404 12937 14101 1548 18481 13433 7032 12428 6549 6604 7627 7749 5125 17557 9795 13637 19185 6112 15528 6710 13388 12928 10527 15576 2461 13861 13796 716 1826 14035 288 2367 4493 2156 6151 6876 8255 10081 4433 17525 4654 17577 6179 214 8106 2041 15348 15841 10910 17336 5218 15121 6875 17918 8082 999 375 9264 13467 15273 4480 5926 15901 11080 10220 14219 12985 4226 10996 14001 12744 11711 9834 10519 11553 17234 16926 18043 10612 14492 15709 18446 17882 17018 2040 19343 16061 15513 12495 7031 10405 1202 6738 2245 12516 15434 13767 3173 15761 11307 15790 1953 7213 11484 17893 9433 14181 9973 4113 3763 6228 8905 14522 5199 10104 10470 2264 18013 7492 19434 18969 14746 13068 4997 4022 15454 8966 7992 10206 8288 5789 19225 12529 8715 19444 7431 8804 16900 5711 15741 2201 5231 9617 8389 9814 15319 9841 13718 15774 6987 19465 5887 5832 7417 14552 15995 3273 2033 3682 4947 3285 206 6843 9003 1080 9079 11271 3052 16710 9247 4510 414 1328 7920 5993 357 13644 7885 15261 6200 8784 5149 19234 3309 597 3973 149 10340 14555 12408 7558 2399 11238 11353 10871 14069 10978 16205 3744 7962 9295 19457 11329 1856 10528 392 8251 100 7909 2057 11965 6225 49 3995 16465 19467 3218 580 6767 19016 15604 14086 14422 10114 2341 3489 11887 3845 8751 6789 859 7611 2506 751 10827 735 3837 18512 209 15390 12211 17455 7242 18309 8472 7025 13877 11117 12526 8827 18231 18111 5476 11945 18053 5808 13613 2569 1822 16875 15229 17049 188 10152 9813 11234 4189 16499 6026 10561 17415 18645 14967 15388 1809 10730 1057 17304 2191 12166 18449 16830 1588 7414 13133 6533 14604 15215 3207 14330 18324 6253 7029 18870 15795 8678 4593 906 12007 18254 6437 5583 483 1553 11584 1290 2342 4422 5893 15380 17492 4788 3434 15376 7929 2454 17539 13543 17193 2313 6590 2467 16335 12286 14047 8958 128 14502 15927 18098 3167 5569 7671 2765 634 17315 14621 1640 11583 5767 410 11889 8305 17339 3827 13697 10060 8311 1868 15177 6261 14617 15265 11192 11712 16041 10923 5828 11601 2111 691 2284 18286 4193 6979 3172 9449 6069 2039 4147 15232 8922 5901 6048 11836 2405 18906 3181 19092 3972 15207 1455 15051 1899 3278 9767 6184 1253 3266 10615 12382 19117 6893 9526 18643 4177 6432 2625 18383 12214 5303 14057 51 769 4849 12760 10164 14969 4989 1926 8021 1602 2556 19412 6691 2097 15747 18345 10149 16683 3327 8928 16404 15062 2141 19472 4036 700 11819 17753 4905 1570 16328 10754 5595 15665 14651 15750 5318 9125 2775 15828 17070 10610 14508 7063 210 10247 11683 15028 11970 16805 13632 14096 3611 8727 8149 9436 2791 5158 4072 47 7592 17375 6931 1670 14124 18595 1252 1361 242 10549 17103 321 14684 13896 6737 14904 10836 4463 19398 5387 16410 1456 9538 16637 12620 18397 9367 11594 18811 18166 6618 4353 11909 17445 4314 7127 16944 12708 8359 14840 803 4689 14382 11676 3589 19439 15740 5879 1834 9991 10571 16308 19174 2818 17682 17425 2613 14856 17205 10296 9146 2238 15515 5229 1134 4135 8912 9627 12724 743 16104 2044 7811 18218 7315 8294 8833 18968 6041 12458 6144 12792 18337 8627 2703 7861 16905 8673 13766 7963 17789 11399 3989 344 17500 10917 13945 3450 13495 4527 15997 4229 17050 17651 12655 9218 2386 10544 18597 11301 174 8700 3021 9549 13616 1842 13894 155 1876 9870 4338 17237 91 9101 1346 3239 13111 16148 15003 16636 6581 10665 9044 3455 3072 9634 593 7680 1857 9370 15077 17326 2577 99 15826 14804 7381 11428 8744 14686 1959 11136 13259 6784 4561 7655 17975 15275 2174 8660 5524 8094 11578 854 1469 4785 10093 15031 10182 10236 9236 15406 10933 11031 4319 3978 4825 15029 18884 15398 19257 17780 17441 14189 14929 11259 7751 15497 11549 12786 3642 2526 2317 8031 1481 3621 15630 4035 8460 16114 3857 10666 13994 10365 12907 17631 1768 17740 7814 6947 4640 1185 13277 9735 3098 18978 4412 17233 1870 5638 4011 15822 1371 5100 13530 11607 2977 5881 8731 10417 9288 9489 8752 12439 17807 5063 2311 9884 6187 9446 16432 2956 211 14501 1714 3926 7161 17092 64 12728 1503 7306 18529 16303 9921 18701 15853 12339 10281 16682 12207 19371 13092 16596 6023 16622 7436 2952 4260 15681 19307 7265 1755 14466 5281 2766 6718 11241 16068 4763 16919 19013 4182 11287 11069 19354 8911 13274 6415 5052 15722 12300 4114 2643 6809 1793 2523 14654 12314 15135 1958 14673 759 8868 5943 12612 18928 16213 13880 5235 17153 7875 4730 15814 10945 10003 15910 5307 16339 7164 18790 14730 11994 12758 1519 5246 18638 12532 17172 1653 18030 13041 11644 3370 17922 1352 5251 7946 12080 16701 10977 2966 7688 12762 3111 12515 16979 2634 11870 1817 12219 12196 4394 4498 2590 19429 18235 9494 4900 16757 15270 2922 9623 14739 4871 6306 8167 17184 5209 17215 16752 7382 7550 1715 1232 18760 8876 577 11696 8976 12477 6664 9301 13714 6826 3345 9237 15730 10744 11075 9689 16874 6713 15921 4015 14242 15391 2498 6064 15672 1600 4086 2101 8724 8919 9434 12741 3410 16613 11966 17299 7516 9898 2702 14737 11032 3377 12082 9578 13831 15174 3308 17838 554 17003 18732 7888 15055 517 17136 13263 9135 6364 1655 6442 2891 1471 15109 8632 16902 255 6570 17323 1589 15263 390 3015 3296 3963 12833 15939 16956 16110 11456 18493 5839 17819 12213 17093 17841 6270 17870 12449 3507 7808 6747 16102 15858 18292 13917 10499 7426 19202 17923 10094 4810 16347 17208 11459 11076 6795 11343 13664 11000 17392 10316 1752 266 2452 2441 15755 13561 4140 13539 2832 8292 10044 18341 6180 15484 18594 16881 17810 336 1689 1778 18157 1841 7717 12129 3107 11333 6831 1422 15704 5867 8275 2573 4986 17963 5914 16411 4145 6516 6829 844 13609 9902 9655 6921 9639 170 8680 1443 1546 1006 2391 5485 11642 19280 9303 4449 7384 11610 18484 4106 16351 6294 11072 6957 337 5954 11203 8512 11854 3217 17998 18639 7297 4539 11670 8745 9747 12474 2936 4485 4288 11617 4333 9994 2355 4550 8941 2955 14531 10488 15732 18475 19214 11780 11356 1032 3948 11724 12391 11277 13701 16797 10330 12270 8523 14725 16670 10998 6063 2588 2449 15801 14971 15137 6968 4087 5133 15545 17738 8577 18176 224 18220 16237 13162 12349 7831 17390 8839 12884 18463 3762 13655 736 13249 17914 17067 15307 13590 8611 8949 14659 867 18878 1746 671 18564 1898 11598 5121 107 4691 6136 3402 15620 3304 2376 7286 19445 11988 11480 8661 205 8227 9107 16982 14699 4483 14362 16163 4478 3334 11383 3990 16146 16000 14707 10752 5859 3907 11847 6255 6131 14040 3538 7863 12662 2119 15772 2863 1267 8363 13608 5537 13168 1875 18251 6399 968 5592 6574 17414 3019 4983 12808 18500 16072 11479 35 11447 12936 8628 2565 15908 10927 14395 3503 1900 2424 5153 738 18519 18117 3302 15773 14779 13242 7224 18731 15618 217 1081 7010 1109 8432 18852 19473 2428 10031 4469 8344 3655 15166 12667 15370 6977 15678 15523 12768 13812 9390 16263 6130 527 14376 19142 10693 7672 7084 18086 15890 1448 1069 16624 7978 9600 8571 16563 9351 688 3313 7056 11068 13325 17424 9015 14334 3960 16621 8263 4428 8120 12245 6975 17118 12499 9662 4655 19022 13838 707 3664 7148 3535 901 18632 17094 4402 4006 3093 19486 8991 1256 9730 4324 11393 16463 1869 10775 18739 11520 18994 10229 5103 5723 12796 13850 13254 7207 9349 15487 16853 18640 17761 10102 3783 10578 12325 11775 18641 18136 7493 1937 16873 7753 9638 1726 746 7924 8093 15554 12594 15188 718 3553 1914 13102 6821 17858 1927 18945 13953 17091 17100 9147 24 9928 13676 2844 5066 13817 13024 7172 16541 2195 10306 17477 7560 19145 4694 17989 16192 9413 15805 19396 17173 14700 4961 11365 3071 13288 12197 9628 10789 1416 13620 8174 9838 1660 2893 16077 19084 10139 8099 18954 11228 12009 1669 17274 16813 618 1690 17904 16611 6834 7934 1023 19311 9430 4966 17655 8229 6770 19056 16057 9840 11102 17879 9544 17564 7186 2943 1598 2437 4806 17291 1581 13125 10208 13342 18023 11725 18855 18467 7217 13593 15018 3333 9663 14068 17930 13570 1188 6845 8085 13735 12352 17488 8435 3299 8371 16052 14030 465 1172 4549 4726 14074 291 9007 13933 913 14215 8704 16220 11272 18853 6249 10092 18022 17674 11862 18971 8703 17554 7812 10879 579 2070 11197 19474 6396 2819 3488 3036 16007 9854 15080 9160 7760 4342 14258 2733 17532 15409 15954 7698 10815 13118 15600 652 9675 1289 6233 1389 8001 9596 5908 6539 16304 11141 1648 4495 6470 10762 9630 10272 14361 14832 11063 824 2493 17144 16719 967 11153 3435 12706 19229 12158 13859 13954 17558 13160 7876 16264 9972 6672 1591 8568 12784 17397 9185 3430 18313 10385 4040 17600 15664 3506 14234 14815 499 10654 13532 17157 8973 4647 4127 16895 18100 75 19074 4797 6035 7416 13640 794 10611 14695 1062 5319 13323 4218 599 7404 5273 8694 16558 6583 4535 4263 5580 4882 3500 8046 934 2547 3955 880 7712 1354 1131 10219 6678 11168 10796 2693 3418 2660 7901 5786 6804 17650 16584 12976 168 14903 8686 2529 8861 12085 5835 12977 8368 1702 14477 339 14459 11641 18377 15455 18202 15236 19289 9619 4406 18896 15176 2689 18786 4313 8646 994 12814 12991 5615 17369 6871 10349 13051 13417 19312 15736 1181 18388 17393 974 13472 11666 13075 18950 18287 18274 18114 1130 16833 17107 15760 5570 4149 329 5018 6515 10746 13914 15163 10715 7112 17660 13743 7714 9547 1744 2505 9587 6945 16017 4419 9568 3343 12816 15179 10640 16932 17484 10678 185 9961 7624 4391 9142 6139 5806 4547 9478 931 3153 14304 9732 11341 926 3146 2884 18474 17348 2853 13501 774 8428 4325 8708 17470 7755 285 8687 13546 3858 17837 1551 18347 3310 16323 13744 17602 8143 16130 10660 4700 327 9311 17216 6192 16626 19079 5906 8750 4540 10932 1183 2000 11309 3895 9500 5352 8436 10414 17209 13360 7106 5677 9856 18915 16565 18505 13679 349 13109 18306 10253 5480 15041 11702 10210 18488 733 52 8225 7358 16174 8651 8024 15048 6923 2061 1997 2685 8878 15083 13112 17194 9618 12069 13123 9606 19373 125 18420 793 3551 10350 18354 7947 4334 8776 13498 17162 14393 5739 525 8107 3604 12357 5784 8126 9490 19314 7533 4953 12018 15539 16920 2139 12970 16338 1913 2114 10643 13223 1467 3731 9406 1459 4887 6571 6702 63 741 2644 16421 6668 9717 6344 3043 15821 8569 9378 13926 2962 5204 11166 15945 3958 335 1838 1248 10705 8090 19376 7635 11764 9338 5525 13921 8829 5171 1865 16798 17130 2015 11530 12345 5986 11486 17034 18334 5193 6458 6171 11415 6072 17605 11134 18067 16535 16160 2409 17403 1203 8754 15042 11300 14352 10431 551 15845 8431 14405 9292 11402 8351 18339 9860 18372 19181 10113 13172 5271 10731 7584 11244 17818 4024 134 15167 19024 7549 11671 3612 4929 17719 9986 3121 12941 13732 11929 12035 6934 225 19255 17167 4755 1089 5842 2612 9069 7009 9011 1923 6811 8755 12078 1685 5032 18007 1175 14525 9797 10230 18981 6006 153 17300 3848 3324 7813 2817 2716 2768 1955 15978 16426 16870 1258 7272 14965 14420 3532 10439 12025 2420 18722 14421 7765 5371 4228 8332 14734 1387 9626 4435 1806 510 7478 10085 11229 6284 9879 18949 17871 15666 12541 9093 13397 16544 3729 10817 14557 6890 3383 3629 2550 12317 5933 6082 12404 13583 13412 651 6414 12419 12151 884 12178 18960 7228 13815 10875 1101 11104 18539 1263 14013 6628 18060 17523 10337 17686 15907 6240 3141 7248 2329 17218 10530 3003 15285 17155 9371 16287 17842 13738 7773 18323 11265 19330 11603 18222 16630 18733 10004 3930 14186 14658 1068 19279 3314 14005 9718 17826 7966 19428 14128 7539 10232 69 13962 18028 2706 18476 14820 15199 15239 1559 3878 1004 4473 18059 1774 6898 8666 12558 8955 1828 3004 16835 17148 17593 12825 9304 7730 15209 6061 11490 16962 12575 15359 9892 3223 15893 1893 7844 16268 3850 18074 12048 8643 19134 3614 7949 7768 15019 17499 14875 13556 2618 11369 11455 2813 2050 2888 19337 17483 6243 15321 11626 3791 3683 9873 5367 7541 18174 15593 10347 12957 10331 15530 6559 3482 16676 11461 2407 11806 13004 19459 14461 14484 5979 8283 19121 19273 19377 8129 558 9266 11332 11112 10913 8889 12234 10355 1666 9423 12736 534 5644 1061 17707 2121 9298 10509 12592 16758 2060 12438 7085 7601 11934 10441 19333 461 7583 13158 6298 5188 10855 8705 16509 8290 11797 14579 13491 8202 15878 3513 18577 4052 9742 14017 19381 15063 943 821 3988 3967 5829 16854 7128 4352 10684 14987 7818 14081 8574 8766 9876 15072 6386 14890 5847 14741 15286 9648 8352 7304 13652 13870 9388 15065 6302 13432 17282 849 12790 4003 12489 3422 5142 10596 2124 1780 12811 2397 4280 19492 11943 14627 16422 15540 4861 12890 18408 5964 5084 6501 754 6300 13250 6912 15331 4592 15123 15491 12401 10360 9328 317 7163 15173 3679 10042 4 7678 7692 18695 5679 16889 15570 7445 8451 16015 16245 11563 11744 4839 5820 981 2024 6034 11982 17549 14706 14662 5224 17560 9440 519 8060 12195 8554 2670 7133 2480 14144 4595 448 13648 12953 12097 18400 12014 1531 1137 11059 7027 14163 4672 8036 15192 5762 12723 16306 8177 7908 18503 4950 7309 14472 16391 18079 5988 11212 9063 1521 12897 1143 14014 11907 12596 9040 16380 9745 18877 15271 5518 19019 18653 11856 16078 14763 3829 11693 11872 17788 19051 12450 2540 9201 2732 19005 13509 8504 8324 14546 14166 14267 5738 7622 11342 5327 3927 19168 5552 13741 13459 10672 17939 6794 2239 1966 17937 10629 13367 14246 4248 8364 17289 3602 6431 2412 12083 8384 7580 15328 785 19014 16858 7957 4636 18659 6071 12697 12459 16038 9115 4853 18192 16768 15076 17251 6717 18217 10774 4605 9392 7505 15872 14417 7403 13110 17771 12076 12950 271 11499 9511 5293 9329 16658 380 617 5958 4399 2098 9967 6030 17684 11273 17537 5265 14429 17962 11060 18867 6051 5022 12675 15140 7823 14073 2599 11565 7777 8734 10616 19200 2786 3195 8904 19226 1917 19222 18615 8634 7123 8211 19209 15680 2330 6256 9996 13727 12638 13931 6984 14353 2504 6425 4515 6610 4804 15211 11065 184 17047 16430 8527 7068 11096 3623 18905 2662 12618 19328 18008 17875 6523 13154 18279 13436 6368 10613 11470 17142 16619 4294 11708 11022 8639 19413 8494 8892 18562 14299 491 12622 5007 15728 6223 12004 17637 18864 12016 17972 16826 12598 8231 11178 17371 16247 8008 2846 18842 16969 1154 16787 10687 6928 896 679 15659 12152 8172 13754 7168 12913 11097 17160 18417 4576 13906 1167 7980 3306 10911 11544 12433 10162 14841 3322 5274 2476 798 10016 13076 10389 12380 14960 18657 7824 5297 15362 18401 12809 12008 5141 18527 13271 15510 9792 649 7626 11337 3427 17657 17006 10627 14688 16738 7986 3498 13782 10356 7007 4820 15068 6874 14211 5156 12872 13264 17673 17612 5446 17163 10335 18290 19221 19453 5290 5120 12218 3413 10948 17695 19050 3166 5822 11969 17407 8930 12381 10580 11933 3091 6746 287 1544 15656 8343 5683 15002 18435 13624 5418 5221 17596 9658 7388 14123 17512 14297 17435 7690 10254 3923 18046 13339 17498 10177 14996 890 11659 11044 18789 11552 11189 4812 8786 494 12304 7700 1483 8570 2731 9035 72 6439 9852 10487 2982 133 750 9365 8262 16953 14152 3979 15520 14786 12560 19344 11108 796 10309 7942 5057 6704 11125 18546 9605 5941 4160 9765 10190 11041 14264 16216 12670 2833 16988 14814 8884 18246 15032 1890 14300 10929 2392 8259 18563 1962 3522 7780 16712 15052 8534 13438 9780 13002 19149 14193 16132 3588 13761 6529 8814 5937 9200 11981 12425 6176 13773 1939 19204 12412 13621 5065 4801 6258 7663 18976 16663 1747 7784 1451 9537 14548 17379 3209 6105 15120 7919 11105 4001 14249 13993 7003 4089 17448 11439 1837 6729 807 1855 3697 403 5635 9368 13519 10949 12457 5044 9676 18137 7276 10808 5517 8198 18193 18078 14463 2036 4738 10201 16116 17463 15125 11226 6077 9692 13215 18297 11180 1237 12948 4987 6965 18996 13213 3616 6265 3931 15044 11368 1976 10886 5575 2032 4448 346 816 6597 17255 3632 5634 2714 15904 347 4959 17518 6671 8004 10828 1816 8424 2486 18704 10624 13863 18428 14939 12498 15329 7616 15170 9190 15014 8945 6440 4221 898 6475 15459 14728 8807 10856 9565 9649 7259 12678 5702 13330 3289 13186 1871 7854 11001 4591 2920 2298 2401 15190 3568 19421 4194 535 19158 4779 4739 18854 15056 8685 11908 14642 4470 15820 12092 7748 9017 14564 7793 5785 8860 3886 5551 3939 5980 4888 14201 15634 12867 18745 1590 1399 85 16751 16762 18576 11925 1362 11975 18344 2651 5370 11171 8243 3069 1785 6653 14083 11374 4931 2524 19294 10066 2543 14723 12112 8902 2282 17881 12240 13783 6352 11303 13786 6780 6413 13176 15316 3244 9213 4942 18514 13020 4506 15873 15810 6817 3860 19031 15022 4638 5585 12337 13882 16766 14433 15145 12115 10477 16496 8166 3376 5118 19093 4896 16388 10683 8000 11586 11718 18250 10745 569 3478 15799 13335 8071 832 15224 7612 1990 14289 8962 7734 17696 13389 12909 10766 7932 8237 14285 18693 4796 13421 7462 4914 277 2705 12917 5138 11185 6471 19401 8280 6687 2900 13005 19374 470 13007 19491 17178 14812 17327 7658 8613 6772 18863 4728 13984 17399 6836 6615 5055 2242 537 17171 16954 6236 2633 16591 4992 2416 5880 13716 5130 9917 891 14305 2210 17222 15729 11678 5116 8940 8736 12818 14946 9385 18807 4185 15397 12059 16644 13202 9249 10191 6326 1823 7250 1933 13032 10707 14656 14394 2738 16418 16955 15711 13216 8990 9988 5877 791 9952 8201 13800 10820 2198 14613 18064 2231 18108 4964 19349 19211 16725 12100 2344 17829 5659 6500 5807 18755 17316 7219 9609 17254 4921 6823 19417 8867 8411 2081 9258 373 7312 11731 3767 7002 1988 14791 1668 10906 4360 18331 15643 3104 1523 11567 1215 18929 13964 5892 14174 16829 10607 2881 16595 14884 3793 15297 2906 11161 4696 3855 6742 13639 59 15717 7433 18535 12204 17112 4890 2199 18355 18773 508 12006 19249 4766 382 8595 16994 17737 7173 19341 18462 17180 13930 9822 7236 1853 11588 6673 10620 7348 18948 17309 10965 4361 4038 4183 15009 2770 4893 6505 15456 17137 9064 1297 11346 6564 11406 11487 18997 7371 17517 8200 10237 15392 358 388 1381 14307 5991 17626 10909 6782 2278 8356 6838 13140 8298 4934 6022 6496 1065 11457 5999 2463 5902 1285 13888 8779 14714 10608 2575 5227 16677 15282 5448 11314 14248 10493 5014 16143 3083 17114 13536 845 15842 17985 2244 17121 19018 14022 12584 8278 8728 3006 11110 2646 7144 1930 5109 18180 7076 5026 3148 15122 14571 18406 5383 14937 7275 1850 15302 9769 10768 18010 1632 4708 11863 10225 15958 4417 18820 7329 5819 8421 11998 4375 5481 18886 15757 4850 7744 2782 9536 1680 567 15496 2931 585 17398 3644 16170 14356 9052 2176 4176 8883 11004 8216 5364 2907 12029 14989 13034 12520 5363 14060 954 10053 17177 9925 8116 1140 5458 15650 14119 17465 12751 1500 13343 9261 3001 14257 18391 14769 15361 19372 6976 3852 19268 4214 17202 8020 5114 9470 5781 16708 10574 16990 10082 4504 17579 14515 17106 10311 2268 17545 6732 6426 13035 9 7802 13079 1919 19199 5563 8390 11960 10720 4584 12774 6219 2688 8659 5758 10598 4271 8247 16568 16341 18872 11345 6936 18039 18873 14020 18621 8818 6955 15339 15512 10531 112 420 10591 1056 18181 16667 74 13649 10343 10122 16152 753 10233 7398 4553 8081 6867 18271 1652 15006 2815 10763 6491 5790 13328 7347 8181 2160 3270 17159 16230 5317 12998 11218 16811 4047 7149 8934 17718 13884 3943 12370 3047 12854 18607 12509 4150 5376 8267 18029 9665 12903 14497 16761 6901 11609 6508 3539 13559 14866 18829 436 8419 2541 8135 13511 11321 9734 608 9685 4379 9495 13941 12072 14241 18045 14398 9443 14720 12142 135 6304 4969 3646 11841 4121 4077 2325 4606 12392 1103 37 8519 3947 5438 4374 13394 7238 5599 18163 6812 10653 573 5572 15288 11750 16536 3584 6418 11311 12756 932 18006 5685 18781 146 2163 2997 19150 18419 5147 3846 9171 8588 246 12340 13349 14410 5230 10966 10874 10980 17724 5259 12870 16355 15719 17767 7523 14251 10866 9308 11246 116 18742 8753 17865 11485 11577 8592 7222 4459 18504 1681 6983 16930 17151 15596 13455 3271 8358 3154 1650 4823 737 7884 15629 10863 17835 5428 15334 16274 11897 12510 12294 5232 11062 12117 5047 13245 3938 10099 12316 6998 7703 10127 16266 12725 10069 14157 9589 17931 11592 8439 12200 18162 7827 6217 7243 15296 1308 5350 7842 16747 1045 16190 14687 8248 10585 11394 10826 1012 7644 4559 3349 15566 706 18874 18550 16735 2204 6018 7673 5380 9157 11449 4244 12665 14770 2283 10197 7231 6189 4045 15887 14843 16448 15200 8603 7189 7988 2072 11979 19091 533 10211 10930 3028 2740 12824 520 4974 17139 18813 9049 475 1550 18979 19138 18622 11454 11962 3512 4783 8799 18646 14364 5328 11557 6173 5934 17276 12963 17357 15507 4567 14389 2051 2089 8017 14315 3318 2491 660 9348 13441 12619 8538 15196 7476 15038 16963 12481 9119 16183 16071 13534 12149 7261 3832 15284 18515 2232 2272 5039 4461 13294 10453 16573 1242 591 11266 1353 7819 7209 15902 1436 10466 12238 11029 2003 4749 18937 2468 8041 6076 1918 6613 402 3710 14873 5076 12691 11880 11615 10694 14817 5534 19253 10584 4230 18244 5803 8855 5067 15281 6601 3287 3084 12989 17929 14214 12960 2730 16618 7015 547 12124 13958 10030 16950 8801 3057 11954 13374 15568 2185 15955 11289 17969 19191 6134 2756 12851 1378 3276 5422 6147 12203 17636 7115 18335 67 15227 18123 17546 5647 11896 6621 15550 15961 5625 10912 4637 17212 14184 19125 323 16561 4751 11585 6186 4998 7251 11717 16236 15897 11250 1949 3865 951 4919 13378 6889 2560 3826 2364 19083 1794 8372 12981 13611 13552 1964 10829 10891 15395 8555 14966 7185 10079 11931 12232 7639 6494 18343 15225 13132 12279 1201 14236 1147 2129 12416 18221 9554 8381 15151 18623 12914 14850 8182 14498 13829 9894 1512 2350 156 4733 10475 3020 19388 3055 2736 11646 18757 5974 5963 10008 16872 7013 18671 9042 18585 7839 5562 13040 9691 17011 10187 1577 1782 11720 14462 4408 15324 123 4927 17613 19316 19324 11500 5086 5724 15317 4227 11184 1437 8822 18599 17430 10675 4752 19245 15607 2471 239 2750 10553 4111 6259 1155 6745 16180 1303 12147 16521 4699 9651 18894 3193 1692 9354 14235 14671 12887 12686 4046 17536 15739 7869 12882 8045 17900 8803 3913 15973 14486 14104 9859 4359 6333 3554 17031 12174 18815 7646 16519 9473 12126 5037 3782 6917 12282 1769 7419 13856 17966 16526 5816 15648 584 5998 118 13077 14419 17619 7374 4097 11243 13142 18316 15365 10214 9226 16849 1122 4608 1941 8626 16188 19393 426 14995 1480 18216 6393 11130 758 12889 16615 7879 16069 4913 4536 1819 14427 4583 6453 13819 6824 14766 4562 14018 9319 4858 3690 2996 11167 48 708 8038 13207 343 1115 19064 8737 10183 2862 7745 9507 10792 16242 3866 13675 18312 16225 7783 1981 8769 8675 3534 8918 18620 15116 19177 2066 18228 4000 2212 1314 8461 10489 13247 10793 11073 13974 14256 10761 19066 15386 8516 7761 3898 8513 1754 6221 4685 9601 6933 17889 18082 6633 14951 17275 17812 16717 19140 7935 12879 16861 7397 1534 385 11279 9366 9766 8016 14795 2393 4615 1156 18644 16278 7996 19192 14526 13082 11645 15249 8815 14386 2073 6480 12144 3492 10186 14252 18670 9530 595 2754 7867 11633 8044 11162 7563 15292 15675 3641 5182 6525 6681 8481 13392 4050 437 8456 9570 18985 9000 13011 15201 15396 16890 16375 7534 4062 18686 17508 15489 694 12121 12070 18093 12486 16514 18052 3362 3394 12636 6195 18041 5435 9705 7041 19323 15767 4048 18261 17947 8333 18754 15156 10777 19078 15590 19102 9344 9555 7605 12901 7696 7701 10900 19132 12015 3577 12378 8480 10009 14015 1424 1873 4010 2490 18575 7411 15839 18143 2914 2222 17201 8273 11782 2783 1037 7913 1596 14771 11715 9919 7914 7239 18788 15569 13256 18234 14635 11656 11556 6314 12850 8039 1287 571 16602 7245 11005 3518 8489 2727 676 1960 8111 822 1508 15419 8656 15746 4489 9653 19136 14286 13039 5284 9801 3582 3378 5837 10936 5050 11327 6961 15478 12185 4415 9009 9013 17401 9760 4029 15611 16277 15024 14869 12190 18961 10145 2592 6320 17115 5417 9211 14448 15894 4100 18404 2150 13780 413 240 10540 5322 13046 3364 10951 13862 12108 18552 3277 11753 10471 17297 14137 2086 12000 7481 6140 8620 12525 3005 6362 12627 12010 15695 14115 15336 14783 6816 15158 4828 9654 15816 16374 14288 1104 15453 5498 7369 4623 11886 14742 13292 1717 16554 8514 2236 17381 5969 1614 9993 1884 5292 5072 13090 10447 12026 13346 7527 1593 3468 695 7174 14282 11169 3736 1883 13383 12528 8851 13122 16713 8581 5085 4826 15128 457 7425 11453 4321 4648 19198 6711 5349 16508 4686 17820 6748 5368 16385 14316 899 15363 6605 18536 5439 126 14535 15357 34 11194 10033 17784 15086 13370 17769 7805 12759 781 2042 889 19395 15034 624 8416 1840 7467 2196 17489 1543 9173 4362 1135 17851 8110 16679 17996 4920 10223 3113 9112 9635 3319 18932 8915 7244 12565 15766 11743 10399 13422 11629 15149 3591 16924 13270 13141 7218 18219 7762 10169 8882 3446 16880 11135 17582 17627 17712 13827 9980 10323 11950 1639 10668 5965 9936 2855 12081 3066 14567 18861 15582 7497 2825 19241 15269 5219 2812 9278 16199 11507 15043 9997 7910 9337 15037 7847 11779 7087 7225 8158 3894 14924 3491 473 10722 16229 8875 4238 16396 594 9933 4884 9141 1404 4525 4258 18095 3008 12423 3849 11667 9056 3662 18947 2190 12735 18241 6276 3350 17959 17944 8730 14140 14046 7483 6057 13164 2414 5770 14033 489 633 19040 226 2450 10308 14162 11570 15368 1312 6448 1141 3440 13737 14070 18647 5699 7282 16252 3715 422 2964 12919 7158 4175 12119 415 13759 4128 270 10783 7589 1711 5663 2581 19275 10586 3559 1193 7081 16443 18381 13659 8682 6016 16581 14094 11831 4328 40 468 6617 907 15948 7378 267 17634 1839 6674 15524 7984 17054 17192 13268 1987 14439 10947 5195 19143 12803 5301 5280 16965 11947 18212 2323 9725 1675 4392 16187 15337 13694 722 12019 8407 7134 18385 15644 14997 1638 13756 9132 2292 3617 2254 6840 14500 17277 13821 5483 14294 3388 11419 19094 2352 3444 3756 16980 4401 11326 13368 3112 15938 9012 6394 7766 4612 543 13021 12812 10374 12073 13135 3918 16671 12268 13871 19458 3143 15602 17331 10582 4503 2377 13540 814 10507 6149 6323 4138 19347 969 13258 5358 8746 3347 990 1766 8780 15187 18835 13790 14895 10587 17943 11548 16530 3648 13628 8526 19189 16620 8361 7387 6787 132 2961 11517 12191 12826 8341 6123 1989 7725 11078 11902 4939 14007 10566 15609 7310 18727 10215 1604 9154 12737 6039 18844 11867 8032 12094 19266 8716 4769 18543 9659 11361 19042 15713 16168 14320 13726 8434 11051 9736 5264 5459 3684 14701 953 1862 7974 12099 2635 13052 19479 12488 5812 15614 3624 4357 16506 9078 4492 16703 15186 10860 13196 5222 3765 16681 1935 3569 17521 12164 3346 2456 10243 9323 8329 6239 5705 1542 16413 1463 10178 328 14993 6161 16863 17515 10263 1676 6755 5951 11680 4016 4917 7490 10168 9029 18922 2233 10833 13064 8670 1310 16786 15698 7728 4004 15154 13239 18256 19080 9232 10919 715 19182 6308 12335 9442 3387 4200 14091 12062 4093 1827 3537 6046 10846 17248 9512 16044 16614 3275 10088 18697 8885 1852 1896 11700 18056 10799 5797 2941 12634 16196 432 9373 2006 12237 5846 10622 15652 3654 4009 5521 222 11655 17227 6855 1796 747 12260 9010 12186 15427 2720 13533 4909 13784 14868 2787 2327 9611 15881 9942 16201 5261 10136 9129 612 6427 14631 12871 1221 9057 11674 1326 14893 19062 8943 11251 15290 12849 7116 998 8548 9268 1753 16342 860 10392 17117 7531 3070 11791 5095 3433 1847 2682 1028 4032 3265 12876 11669 4279 910 4356 11042 11850 17815 11611 4210 17443 13492 9960 5695 7383 79 686 18044 1178 15577 4069 4508 5555 11283 11198 9640 12856 6585 16694 13978 19460 12249 988 18612 18841 4443 12293 16485 8086 7786 11090 18656 19389 11561 7334 16771 10115 12246 13515 11170 3544 15311 7175 10772 14351 1667 16217 16209 6842 8591 3249 10747 15742 4367 12946 13137 13061 342 6490 8223 14977 11385 1334 12479 6849 16368 9524 15980 11580 7396 484 18953 13514 12403 4930 18837 18720 5189 9279 4358 1969 8709 6387 865 1497 9253 14415 17556 17950 10300 18226 11264 2539 10462 18665 12318 17575 6278 8002 8049 13145 13387 2107 4967 11483 12947 18833 2274 14329 2181 16173 12462 17359 14458 9672 1196 8414 15439 17396 11255 6913 2497 17493 3699 5454 17824 14188 11211 5588 9799 12122 5868 18793 11495 14927 16005 8130 19037 17703 4811 13709 7130 2645 16511 10960 13194 17534 182 8265 16943 3156 2793 4057 14809 8370 19438 2273 8144 18260 19162 1005 12672 6092 1229 13720 831 17730 8970 1947 14154 16610 8331 18604 1085 16662 14644 17846 1119 13044 5903 3993 15762 1470 14129 17413 1205 17108 6761 5013 18624 8401 4310 6734 6656 10125 14713 427 18721 5412 1407 11466 17645 1644 5436 546 3667 17062 16699 4598 19203 16292 17601 2960 9804 8600 4242 5826 13074 12054 14061 14048 19414 12045 8164 7379 31 19348 14177 13053 12713 11914 8025 11649 12312 17462 10644 8303 6235 5172 2446 16379 16365 5772 10721 11418 6792 8235 9198 3531 13824 10916 11632 6086 2536 15210 17808 8285 827 6066 7524 18560 7602 7625 4633 12581 16111 3082 14231 1461 2632 1986 10304 1064 12093 740 11475 10107 17240 12800 17909 5978 2076 4837 4928 13486 17510 17432 11239 17505 18332 7633 17887 13663 10189 15846 10719 12379 1190 15684 7667 14261 18092 7020 3893 11968 6964 13069 16441 13809 16470 158 4254 620 808 4741 10849 11528 13631 15259 17376 16113 9598 7809 1261 2100 538 18750 14383 142 11835 9464 492 1529 14894 12705 15640 18308 4434 11079 7716 13555 561 14527 14127 2348 12504 12253 14667 12600 8689 15937 11355 18305 8545 7176 10194 4192 9405 5452 7233 16285 8098 16605 13939 18673 552 6019 15850 17905 12827 9954 6074 1306 4671 7118 16945 12280 17795 8528 6550 3180 6825 2419 5011 6891 3790 4642 18104 11959 13127 9924 17642 15833 14223 5497 7664 13568 12533 18168 14504 7196 6552 15544 15631 9818 2127 19485 14581 2608 10635 10552 7214 15304 6815 4286 7923 1786 16244 8617 16369 17662 8615 3859 721 10937 14923 4659 6381 2886 13589 18050 3836 12893 11808 5878 5855 16337 2760 5131 9909 16782 10159 12031 16882 19409 13712 14852 6568 14950 511 1482 113 9070 16502 7579 12729 18540 5430 1260 4505 16534 4477 18321 4502 7989 7828 6220 14333 4416 9227 4142 12742 18447 13490 8652 7860 8183 16497 16151 8037 10063 17878 9810 5735 1145 8647 16983 11660 17857 18014 8467 5796 17280 19305 1683 15035 4467 15060 9493 13080 15819 7293 14647 4864 7449 18734 623 14058 12161 7188 5966 180 3831 6391 5798 12377 3480 18749 18125 13033 10685 16912 16436 13893 299 13465 13525 6551 7822 7302 4075 10050 2774 8553 11230 12858 16850 15099 14489 13837 15956 10753 514 16476 3755 10407 14794 4808 523 18448 6164 17303 6556 16066 15594 5012 16022 19109 18598 11800 10801 11614 17480 17086 5799 13405 11164 771 13597 902 11155 203 17116 7621 2792 9805 14540 7294 905 7574 13488 3461 5495 937 7965 15849 13522 12885 17395 11742 6359 17451 88 18860 479 13571 8756 17991 15420 14146 442 6443 5945 14882 12761 10819 5093 16928 848 11576 17932 19218 14834 16013 13551 11269 1504 11558 2836 8142 15851 788 13755 18502 3325 6017 2932 15787 3328 16084 17800 6252 6517 3366 1128 308 14767 3545 139 19034 10156 3341 17685 1993 7944 13411 4299 16550 18360 3542 3587 19420 15214 5500 1491 2356 12878 3102 3065 12275 5858 16649 5402 13805 588 839 11739 7376 10433 10767 19326 15061 15817 3397 7928 16243 11505 6578 13704 16524 175 8740 689 17367 17669 4187 17683 8009 17345 14956 13246 16836 13969 2226 12938 19212 16998 18689 18140 2243 12397 17945 11325 9023 9816 6346 936 3961 10483 6790 10824 9594 16763 1227 9352 4972 7537 7042 13205 6115 10895 12131 15803 17197 2843 14703 11736 3991 9066 109 14798 16131 5437 1562 5091 6694 14550 3126 4370 16218 18394 4098 850 16816 17927 5756 3186 18740 17509 14088 2002 1700 2735 12810 309 8136 630 7491 2029 14568 17041 8806 11664 11109 14262 1777 13232 1 7153 5503 15985 16123 7820 9525 13201 8584 4803 13379 1093 17231 5896 16627 3002 5 9963 16119 14575 383 7360 10226 8517 18748 4894 17061 18541 18253 11516 8325 15963 2019 11613 13037 10508 2897 17964 13017 1343 19054 2457 14281 14388 16690 16326 5946 19498 18944 692 2366 2583 12579 14694 14107 12331 4020 3247 3613 16606 4209 12918 17211 1040 5482 2779 9551 18542 5391 361 8546 3012 12588 12333 10406 12881 14914 7093 14777 5684 2580 6305 16231 6231 476 6310 11055 11506 9550 8286 8557 13916 11021 15260 18687 2299 13278 1160 1574 572 3607 7344 1194 1679 982 16641 10590 18554 18018 18581 9150 17409 9305 11936 19173 5373 17408 4091 11139 8010 2823 15848 14632 13760 18303 389 12273 2034 19242 11732 19258 1922 12939 17165 6349 3917 11582 14945 12645 12460 1046 2123 3175 7300 1453 18510 4952 4616 8336 6623 1748 8524 12644 10729 15670 7210 6356 13373 10733 5713 4865 10148 9031 5070 10015 9176 13450 15745 18247 8302 11145 19392 5827 536 9992 298 3692 9911 12285 6614 14582 19028 12752 6647 19476 12958 8932 15504 6736 4663 2259 2458 18224 8688 16300 10394 2925 11857 14116 1059 10882 12775 18763 12154 12027 5179 194 3280 7192 4827 6037 5068 3608 10593 5477 17919 19369 665 9746 18526 2267 5170 1511 7522 8981 811 2831 13018 19059 8266 4688 14865 1587 14099 12543 14120 4118 15646 11252 3090 17742 17541 16437 18392 293 16444 6881 4710 5925 10606 19315 17501 18285 12927 13776 7271 2277 16290 19250 5304 7266 17490 16704 9995 16935 16453 16269 11997 946 8277 3075 3206 15276 18729 4426 18135 5484 729 6479 2679 9750 5019 3787 9339 4698 10982 11267 5291 19461 19100 1688 18245 10342 12929 6467 1024 10268 16951 5560 3889 5652 15245 152 7603 482 10424 4660 1671 9379 823 4066 10679 7536 5709 4622 17936 4719 17362 18930 680 13279 8831 7441 2014 15248 5340 8124 10739 2718 6980 14292 6354 11523 16908 5520 11832 1418 6042 16557 4973 4666 14998 2824 10547 1977 295 6870 5178 5909 1776 3795 1908 12394 6120 3261 7890 10902 1584 9187 12986 14011 15280 6445 16899 13811 10278 6318 9895 11095 451 10055 1576 12855 18692 5590 3996 11817 15547 9208 17017 10305 14271 8796 18237 3785 16995 12050 83 14518 6865 6847 423 13980 13691 18403 14646 13437 9529 13283 12338 10636 18352 2435 15969 13808 11027 5548 3749 14151 10035 5967 15098 6759 9131 4300 16532 11056 4445 1950 6866 7740 14287 13236 12037 19387 9763 2648 1579 8964 3475 15221 2848 15106 17458 19130 13617 18387 3372 6697 15591 10512 1367 14384 11182 17901 9106 3382 7109 9574 909 9461 16359 9219 7472 12830 4327 10617 19096 2010 4742 13778 17354 1626 15610 4139 9955 17374 278 2080 3253 14056 2472 515 12020 2152 4743 16599 8607 18838 6839 10451 10428 4932 4791 6575 17863 10696 14089 8151 6700 2286 15486 19478 6773 1779 13344 11213 1189 5260 11398 19151 5962 3212 10677 14638 17697 9121 12996 659 428 12587 11154 11049 15645 2047 14363 14982 12077 11012 837 4560 1011 5016 3399 9503 18154 4235 9764 18272 9043 5669 5496 11533 2965 4756 602 8816 2475 1967 12201 17314 120 14717 2958 4490 14114 50 18572 9918 2045 4646 17366 15104 16099 12334 1320 233 5419 15843 2345 15983 929 2604 9868 2358 6819 2707 5982 17220 10218 12935 6062 17814 3128 12968 3630 8743 9610 10375 4124 18294 4579 2873 15807 19133 8800 367 18267 12128 6853 15025 17264 14276 9282 12978 4039 16382 3443 12807 304 9897 10843 453 10502 2653 7160 1843 15250 14595 7520 581 5565 919 5113 15808 12987 1599 5995 10595 13105 19385 4907 1566 3161 18070 1789 16859 18629 19430 563 5343 1318 2483 930 11258 18614 11628 1432 7619 17586 8425 12383 7518 17285 2021 16844 10239 3389 9679 17993 2154 13599 10040 11976 16673 14626 12799 3801 17420 14599 18431 18061 10811 2639 10779 4554 7342 2205 6143 7654 3445 17749 13362 14323 2872 18119 10200 8213 5268 9091 9831 5440 797 5108 14278 13830 15599 16085 9375 3725 12834 631 10840 14400 8309 9620 9800 7198 15139 12049 7877 3448 10207 12298 6927 13308 7389 17168 8669 3138 19095 6100 6528 9826 12988 1114 6800 11378 16515 4496 10638 5106 18636 7845 12990 16452 12608 4282 13366 6616 7473 12700 104 9566 17566 12251 460 17783 18712 3603 9869 15976 2064 4520 17688 1892 6011 15030 8096 10051 11637 13091 12683 4407 7322 11665 12468 5556 13355 6953 15463 8722 3499 16462 13751 3999 19238 10234 17111 15834 8057 7281 5122 11704 3847 10628 7570 19363 17446 1832 18149 17778 13695 14641 2009 18426 11294 9263 935 10940 8840 8695 19233 1973 17552 9522 5306 4869 8199 7931 9724 15124 12215 9823 9104 7054 6723 2363 2942 10639 17127 6854 15008 5393 1695 5882 13209 11138 8920 15639 4792 17941 18817 18859 14926 15720 14357 14496 4472 11673 11318 7062 3190 4289 9321 19403 14765 4233 11310 15718 3263 12461 13229 2516 1515 16498 16964 4213 17746 2708 13633 15172 18836 15685 15583 6215 3312 2301 16058 16687 12039 18627 261 11377 838 13251 13235 11336 8952 16716 11370 14845 19156 5462 6483 14672 12350 11759 4753 15967 13995 2892 4414 7391 18068 3297 4225 2482 10091 1225 16472 14326 6145 19254 11899 13189 9134 8291 3514 14941 11654 18534 509 9953 2502 3395 16440 3198 2332 2933 16598 19244 9557 6868 13313 5285 9193 1180 16356 2845 14736 4683 16645 7434 1077 17266 4220 17741 13562 18318 10572 15437 5382 17716 17147 19482 6008 10569 12041 3163 13056 14611 544 5096 15793 17243 2796 11427 7841 12617 12571 18229 13653 17614 7666 14121 16910 17176 6388 7105 10667 11719 18378 921 15405 398 18957 6328 7933 10983 11540 3426 17253 7090 14239 9386 15699 2503 6309 8204 8169 966 148 2410 5228 16047 2346 1764 19025 2258 16232 8240 9289 4848 1772 5390 17020 1677 3719 15474 1244 14450 8707 15197 14598 7141 13345 16668 13284 9681 1035 6579 12422 15661 2807 14067 10952 18300 12362 8113 5105 12176 2806 2252 1438 7119 6214 12542 18946 14975 12445 6684 10491 1150 5949 2857 12390 7794 1771 13327 12857 956 11547 3576 8533 10517 15724 11535 11627 3881 16793 2020 368 19184 3578 4665 3294 8658 11728 12902 354 4679 472 4133 13481 12605 12693 1825 12347 7699 17122 11313 6547 10884 5751 12087 16522 7568 7620 7891 1708 1487 2337 1411 17007 10565 11462 10958 15658 10751 16065 11776 6946 1829 14578 6791 7351 13690 4347 17965 6733 15159 6301 5546 615 8959 1350 11316 18725 2614 11435 5587 19379 16037 11222 12375 17074 6735 10479 2947 10727 4604 1245 9260 13376 7037 17206 5334 18021 6535 6688 9001 1051 11816 17088 14867 11874 10997 18787 19448 417 1628 18596 8385 17360 3061 16378 15538 875 14749 17648 15217 9195 9643 6719 12427 10961 4500 6148 9922 6937 6888 6040 18242 8838 12485 8960 3634 5490 9741 6929 7278 1954 5008 5286 8767 4350 13864 13114 10377 12023 2171 11425 4186 11450 7074 11426 7241 10402 8337 5574 92 193 16937 10436 18284 18939 15216 272 11 6916 3941 8212 11257 1026 2001 8455 14909 11733 2351 16080 6861 5512 10897 15763 9149 7994 14173 11658 11174 18232 11550 9829 14874 4963 3119 8542 4629 1490 7270 7328 3516 8473 11749 11276 19359 2528 13457 17284 16101 12615 8196 17461 10359 17589 12507 207 19047 2951 10141 11890 15283 14499 14195 14663 13901 7886 2663 3184 14310 10235 19291 4531 2158 18072 16207 15714 2913 1894 10013 13124 5990 12813 18429 2038 3040 9706 9614 12067 15928 15564 19308 8497 3155 18479 4351 18130 11429 11035 16678 7008 1041 10314 15468 8864 16275 13719 11545 13802 14808 5600 15064 8693 16948 3665 2520 14275 6712 17706 7311 12148 13825 6519 13874 15131 3227 4774 16949 14848 10327 11923 16878 6001 3497 17745 15415 5215 13971 14111 14182 5689 17426 3691 6097 6436 15940 3703 4765 8080 14729 1356 1787 14838 11502 16200 14106 4315 9404 1029 8217 14537 15464 7800 8954 2306 3696 250 14207 10516 15058 3031 10505 8345 5755 18633 4269 7097 1200 11206 8835 15962 9465 18495 894 592 13563 14032 2910 13382 8522 19390 2103 15726 13364 9332 16542 15141 7774 6262 7061 4509 17948 10498 5727 16352 15549 15295 127 9656 14936 11126 6990 12491 13095 6125 15655 10698 17988 10198 2380 4389 15256 12676 15754 5778 12631 10357 8301 1538 1719 14425 19295 11163 19423 1083 17225 11101 6476 10473 130 93 739 11201 14928 540 12734 14087 6224 7296 14452 17891 15768 15578 11837 14935 15314 10019 12471 1916 3937 13104 2065 8590 14938 4809 16427 16810 108 11196 15800 7464 15994 2357 1552 12044 2717 10418 912 12727 10341 15264 16039 19267 15813 13841 13088 4343 15364 1866 7763 4748 12601 1013 12707 1292 17876 12136 14821 15769 5003 2444 19044 6582 3792 1575 15589 6206 2860 11389 9851 16267 17324 5375 17827 828 5646 16520 14898 3754 5034 9350 1173 15603 10877 12995 2606 19161 18248 10575 3659 10686 16336 5725 13875 11524 12787 3526 8706 13089 4807 17175 477 13567 11638 6778 1070 14341 12933 4155 18172 876 12534 12660 4117 18924 16531 9847 8134 10176 352 12874 15796 6569 11488 13234 15683 3904 17207 8525 14710 10454 15964 16288 18903 19350 14269 10963 9722 3890 7547 6321 11388 11752 15130 2841 19426 8948 14185 19036 8985 19402 6856 13959 4736 5975 2811 15562 9127 3281 11118 16400 7510 5404 95 12721 3133 17542 18442 15488 786 15231 16157 3502 16974 15378 19487 12695 2417 893 18033 1406 7746 4564 7921 11875 7179 17961 10539 2354 10411 18578 2004 17012 13333 15066 13230 4431 11579 9969 2408 19367 5201 4675 5351 7099 18121 3560 9719 4259 13192 8176 11904 1234 763 15831 6244 3708 8417 1645 17002 3900 14016 16159 18195 12569 19283 12291 6555 8210 15457 2263 12342 18921 13967 13605 19493 5155 9342 4999 14306 10203 9431 18346 9513 12980 3636 13907 18611 9657 4658 2723 161 11766 1464 12671 6963 13012 5030 7685 15906 7451 8246 18032 10048 10557 10821 17084 2246 17822 9359 16843 7629 6959 11799 15110 408 17528 10592 13876 5314 1612 17429 13903 13642 6334 1673 1818 2640 7197 1440 13587 11292 7859 13902 7548 5234 10795 2610 12431 10038 2166 16097 14876 13549 3225 17133 4196 16067 18586 3205 11663 10885 1186 13857 18359 4346 17036 14266 13016 18291 430 12287 15996 9491 11175 8097 10058 9637 17427 456 8454 9084 2603 3764 12095 10706 4165 5021 13572 10252 16240 7060 642 4814 4620 10339 5805 9075 2398 10167 5994 1458 3870 4123 5717 8138 10181 6797 16656 19230 8471 524 16431 14712 2319 2120 17454 6777 55 8621 1413 11822 5955 10834 5769 4247 18888 1472 3034 10459 9216 18017 8145 5347 3301 1999 17665 11768 13266 15168 15299 14454 12258 1265 4532 17804 3933 16730 18879 13434 12032 7065 9095 13696 1737 3331 1571 16946 7390 2175 16832 13022 12698 6472 11955 13794 3049 19089 13384 818 6012 10991 17608 6985 17984 18605 2465 7656 16390 6914 4007 3129 9159 18199 6873 16386 14755 952 9291 17126 16334 15222 7046 12868 16760 12844 4161 14272 12661 10781 6142 7474 8671 10742 6860 16820 12193 9690 18236 1360 9515 13506 12915 17791 13119 3477 1002 10212 12943 1307 2304 6595 6624 18026 9169 4171 9239 15585 17615 6803 10560 5541 18109 9849 14566 9097 8391 5243 4845 10270 13026 1725 7307 4925 1971 2043 7117 5719 5295 9072 9085 7993 18150 8540 12123 6466 14358 18459 5166 11508 9285 9811 4450 17792 10161 6338 12475 12265 8012 15114 779 15237 14962 1428 11391 9825 5948 17502 12231 12434 14835 5811 11372 2680 4067 11788 12823 9733 6047 10807 13730 14006 836 645 12550 732 14125 322 1607 920 19012 12284 17223 3465 4231 15355 18144 14478 14354 5345 5337 12712 13484 1125 16112 16783 7683 13582 765 13372 2785 13015 6682 17436 16126 11927 11805 17385 1740 1214 467 687 18399 11624 833 15105 14485 7408 12964 3044 6371 17079 7484 316 11177 4410 9178 16952 15349 7588 2636 15708 10325 424 6918 11590 4144 12717 17917 13296 3774 9907 2885 16309 12443 725 9845 13721 10007 13045 1723 9103 18175 81 14916 8777 5813 5379 17210 9457 9624 17747 13315 3643 5250 11916 4534 13448 14365 6292 7050 19075 7830 10425 16133 545 12432 11726 19052 8697 12327 13923 15758 8102 19362 9453 16454 5431 12748 19394 9731 18120 13406 12030 6289 2988 8794 17317 3505 10520 3060 12740 18003 3981 12181 3037 8378 18914 8148 8076 8877 1390 18477 5469 15327 3547 2499 5355 16417 14002 5005 12956 15150 3549 2059 6776 14082 14900 8238 6419 10142 18263 16697 9082 15929 14430 15410 9979 17063 2995 2579 18713 10710 12552 9459 5205 1433 11941 131 12828 1749 14792 18530 3457 10188 433 5670 8234 4924 3686 10452 15889 14888 13973 19007 4863 4735 6565 10078 7289 10160 12586 11047 3483 6771 15988 14606 13998 8100 1770 4982 11915 3863 2837 7545 2598 7332 18912 6056 101 5984 17064 4019 15536 11651 2023 16208 17095 11476 17333 9224 19408 19247 7815 2145 1654 13001 7982 8306 7873 4787 16212 15012 10378 13224 4761 18847 13352 1805 8824 5117 2882 11116 18908 5589 13937 13206 7665 9460 2221 6650 9644 3393 835 8334 19355 11741 4245 18579 4873 9622 14637 9652 18955 8186 10518 9912 12447 17129 1625 3625 15642 10854 14844 16164 14790 549 6296 13120 3147 10626 17691 12103 5190 5911 1701 15142 11024 17072 10903 1561 10999 13336 3809 3486 3678 13042 9318 17080 1086 8506 5655 13381 6573 14064 1278 14704 10853 17773 19287 15333 14922 5547 731 17659 4805 17705 7862 3737 5607 8028 6509 6322 6160 15082 1802 5421 14594 5929 5952 2721 18973 10307 10555 12779 6765 9930 11944 3781 12840 13502 10604 12549 19400 176 9957 5833 12301 5127 15573 7826 18913 2071 11514 15903 14758 17924 2257 4513 15450 8112 17440 17029 17854 7364 16107 9395 14538 6807 9045 16294 17803 2453 12373 12837 10291 8549 4070 9138 15413 11308 1693 11952 14891 16081 19282 16001 10579 16746 14797 14232 14773 4512 6639 2037 8879 2378 3474 7352 18839 9613 17550 11121 4695 5710 12217 9987 15423 3558 10492 16181 15748 4514 825 11023 6629 17278 14666 16748 5342 6667 13860 10786 13049 13803 15581 10602 221 17574 2704 18730 14519 7122 8162 10217 18243 16638 15532 12664 14877 18325 6169 9034 5511 11938 3200 2116 14308 10408 6611 1767 11315 1863 13966 2984 9235 13614 16282 16585 507 4332 15422 15812 10850 10814 19119 15385 8854 18301 16246 8500 3802 5325 3436 18802 13596 12764 3471 11242 10129 3509 12931 15707 717 6196 1564 17798 13420 16825 18011 18827 4570 18707 4918 19339 10822 7469 4707 8969 5688 5119 6785 3883 8580 2290 16705 16370 7457 13307 7789 8681 14026 18834 2294 10324 6055 1585 5696 3663 15343 15957 7557 4670 7045 18989 16736 17239 9542 6054 3338 565 3714 4404 4031 9758 9122 14147 9450 7181 16799 5400 17653 15561 11827 7442 11895 6404 3122 19112 445 8763 12320 16009 18159 13347 5078 9759 2487 12046 16364 16625 3137 97 3359 12220 960 18485 6846 7221 17236 10867 16128 6920 3712 2921 3872 6177 4212 17404 12979 490 16917 15353 16939 10386 5128 3657 5216 18590 1736 19416 15511 10709 9333 5658 17257 3123 2016 15900 4488 18194 16634 16250 6680 3758 2296 19077 16414 18617 2336 4661 881 5223 973 11953 14674 4112 7870 7596 12772 11636 12235 13518 10460 12835 18843 13424 13295 16970 16540 1499 3303 1996 7797 878 8862 14396 14490 13126 11183 9280 5862 12399 5681 6594 18371 12563 6911 3956 18899 8614 9199 15756 1705 16492 965 283 1722 6188 10554 11820 3416 14709 5956 1357 14830 18049 1732 1036 7650 654 1298 17658 18458 3705 11338 9475 19107 17834 1979 18165 12999 5747 3628 7406 6608 12463 6060 4295 12859 17529 452 11387 19248 14495 16024 12635 4432 4744 2826 7014 4945 16486 12795 8624 144 3101 4348 8979 16675 14172 13848 14378 5010 6238 6665 16451 16147 15633 13629 18276 18516 9435 18991 7108 2207 12205 12255 10312 6198 18651 18655 8441 6007 16559 3033 400 13155 11510 9906 3902 15213 17132 16442 1784 4557 8477 11445 14404 9376 13986 14857 9286 5800 17417 6683 2656 5916 8427 13427 14038 18980 13257 14543 7939 6603 5743 3252 1698 17656 4800 14683 1912 6657 5414 16775 11087 7326 656 5656 18958 4632 17779 19239 7998 1567 14164 3405 7721 1756 16029 14391 10024 9410 9182 13734 2673 11033 2477 18223 1696 7279 12297 3024 3022 17949 697 10732 7038 2104 11778 4163 18608 7632 4296 19364 13666 9562 12866 8631 18096 11566 3800 995 19259 8775 12794 5196 5202 10556 13996 12364 17548 3510 19235 18255 8314 2553 19058 5851 18553 3675 4481 481 5310 12089 17828 12701 16791 15565 869 5642 1984 6658 6455 13071 19264 8007 13220 17241 13865 16419 12572 9944 17272 17302 17968 2138 8809 15262 5276 13359 10290 16848 17195 355 9108 379 8984 9729 9162 6068 557 4349 7401 12465 14153 4083 12308 14731 16792 13097 19220 9050 4232 12720 8783 506 17310 3064 4994 12514 13146 18762 11532 6088 8350 7204 9885 1831 12363 1889 8175 13286 10872 17569 13585 16162 5558 9448 14591 2173 3115 8366 12680 18966 14493 8146 19488 6274 14970 16989 310 6489 10609 10118 10890 5972 9577 9607 5237 9407 3788 12057 16330 9113 6290 6067 3501 5266 1910 4092 1891 7407 12522 9593 6649 1478 8156 17916 12313 6343 18600 14910 6662 2513 1391 14148 3681 5031 9561 9711 5289 8239 639 6543 12626 3874 11809 15013 6909 6900 18289 17823 2564 2669 7424 16141 5087 3124 16011 18424 8739 13063 3586 9809 5623 7647 18764 15027 14149 10650 11810 7816 1231 18389 653 2161 16564 1522 7070 1783 17246 13428 4760 9875 3815 9310 16714 1450 10942 10185 8376 1738 11432 12266 917 8191 14633 9137 5420 17042 1315 19003 8997 14948 6246 3039 19496 2769 9709 10680 16286 7610 9471 5533 15542 17267 7535 14142 3601 2759 10551 1965 17847 16021 2209 15102 12961 26 9316 4943 1462 873 16552 7453 9207 13485 17805 8453 11924 6541 13477 15876 12538 18517 17632 14348 11787 16903 6905 6446 2134 11376 7697 15278 17999 15448 9172 15460 10318 7776 13610 502 18122 12295 9377 18662 2371 1031 9989 197 1808 13267 17855 
1 2 337
2 3 849
3 4 966
4 5 685
5 6 237
6 7 95
7 8 881
8 9 368
9 10 572
10 11 869
11 12 961
12 13 764
13 14 600
14 15 869
15 16 837
16 17 257
17 18 113
18 19 223
19 20 380
20 21 841
21 22 977
22 23 815
23 24 349
24 25 331
25 26 360
26 27 670
27 28 959
28 29 205
29 30 538
30 31 716
31 32 173
32 33 730
33 34 124
34 35 441
35 36 554
36 37 300
37 38 841
38 39 144
39 40 811
40 41 379
41 42 867
42 43 548
43 44 55
44 45 968
45 46 21
46 47 1000
47 48 410
48 49 27
49 50 873
50 51 962
51 52 796
52 53 508
53 54 198
54 55 300
55 56 250
56 57 39
57 58 414
58 59 741
59 60 523
60 61 451
61 62 64
62 63 496
63 64 547
64 65 606
65 66 791
66 67 708
67 68 872
68 69 20
69 70 411
70 71 698
71 72 968
72 73 592
73 74 418
74 75 271
75 76 970
76 77 549
77 78 140
78 79 714
79 80 395
80 81 486
81 82 99
82 83 701
83 84 469
84 85 859
85 86 706
86 87 220
87 88 365
88 89 543
89 90 961
90 91 270
91 92 57
92 93 698
93 94 89
94 95 15
95 96 990
96 97 516
97 98 747
98 99 425
99 100 711
100 101 852
101 102 843
102 103 485
103 104 531
104 105 172
105 106 496
106 107 955
107 108 676
108 109 770
109 110 868
110 111 758
111 112 248
112 113 866
113 114 216
114 115 456
115 116 400
116 117 852
117 118 764
118 119 937
119 120 752
120 121 504
121 122 794
122 123 672
123 124 371
124 125 177
125 126 742
126 127 37
127 128 263
128 129 158
129 130 757
130 131 454
131 132 911
132 133 795
133 134 751
134 135 826
135 136 584
136 137 33
137 138 967
138 139 658
139 140 655
140 141 761
141 142 15
142 143 366
143 144 870
144 145 596
145 146 729
146 147 748
147 148 514
148 149 743
149 150 763
150 151 394
151 152 957
152 153 607
153 154 565
154 155 789
155 156 866
156 157 431
157 158 898
158 159 200
159 160 939
160 161 933
161 162 121
162 163 451
163 164 387
164 165 309
165 166 707
166 167 181
167 168 890
168 169 296
169 170 860
170 171 331
171 172 108
172 173 626
173 174 949
174 175 194
175 176 39
176 177 684
177 178 208
178 179 956
179 180 22
180 181 5
181 182 875
182 183 34
183 184 113
184 185 617
185 186 328
186 187 382
187 188 633
188 189 705
189 190 59
190 191 719
191 192 454
192 193 51
193 194 53
194 195 730
195 196 352
196 197 244
197 198 82
198 199 714
199 200 604
200 201 444
201 202 408
202 203 69
203 204 596
204 205 455
205 206 394
206 207 469
207 208 787
208 209 527
209 210 513
210 211 9
211 212 289
212 213 661
213 214 412
214 215 34
215 216 507
216 217 958
217 218 51
218 219 544
219 220 601
220 221 733
221 222 936
222 223 518
223 224 43
224 225 171
225 226 711
226 227 148
227 228 5
228 229 414
229 230 770
230 231 141
231 232 593
232 233 263
233 234 788
234 235 666
235 236 710
236 237 340
237 238 185
238 239 702
239 240 285
240 241 156
241 242 950
242 243 53
243 244 228
244 245 984
245 246 228
246 247 826
247 248 28
248 249 797
249 250 926
250 251 381
251 252 10
252 253 870
253 254 751
254 255 992
255 256 316
256 257 509
257 258 84
258 259 558
259 260 492
260 261 978
261 262 998
262 263 324
263 264 401
264 265 778
265 266 359
266 267 578
267 268 148
268 269 466
269 270 606
270 271 490
271 272 106
272 273 104
273 274 765
274 275 688
275 276 489
276 277 48
277 278 552
278 279 22
279 280 291
280 281 719
281 282 722
282 283 399
283 284 225
284 285 532
285 286 497
286 287 321
287 288 884
288 289 780
289 290 559
290 291 623
291 292 550
292 293 71
293 294 909
294 295 494
295 296 776
296 297 184
297 298 541
298 299 255
299 300 87
300 301 836
301 302 964
302 303 326
303 304 229
304 305 633
305 306 188
306 307 191
307 308 729
308 309 65
309 310 733
310 311 699
311 312 405
312 313 17
313 314 901
314 315 827
315 316 467
316 317 750
317 318 418
318 319 985
319 320 686
320 321 255
321 322 53
322 323 605
323 324 826
324 325 427
325 326 270
326 327 74
327 328 915
328 329 954
329 330 710
330 331 757
331 332 268
332 333 752
333 334 293
334 335 720
335 336 48
336 337 805
337 338 556
338 339 686
339 340 617
340 341 344
341 342 961
342 343 928
343 344 686
344 345 77
345 346 355
346 347 172
347 348 136
348 349 767
349 350 212
350 351 141
351 352 187
352 353 485
353 354 228
354 355 851
355 356 754
356 357 118
357 358 169
358 359 857
359 360 279
360 361 179
361 362 763
362 363 385
363 364 541
364 365 605
365 366 477
366 367 701
367 368 201
368 369 345
369 370 757
370 371 156
371 372 896
372 373 287
373 374 464
374 375 292
375 376 38
376 377 801
377 378 886
378 379 976
379 380 438
380 381 602
381 382 597
382 383 109
383 384 468
384 385 437
385 386 747
386 387 895
387 388 493
388 389 92
389 390 488
390 391 491
391 392 916
392 393 844
393 394 486
394 395 268
395 396 464
396 397 264
397 398 582
398 399 812
399 400 82
400 401 542
401 402 848
402 403 589
403 404 521
404 405 240
405 406 2
406 407 950
407 408 344
408 409 72
409 410 478
410 411 724
411 412 976
412 413 678
413 414 310
414 415 547
415 416 566
416 417 290
417 418 643
418 419 232
419 420 795
420 421 495
421 422 929
422 423 498
423 424 667
424 425 349
425 426 144
426 427 809
427 428 721
428 429 830
429 430 870
430 431 657
431 432 628
432 433 273
433 434 86
434 435 558
435 436 483
436 437 60
437 438 158
438 439 510
439 440 438
440 441 121
441 442 970
442 443 729
443 444 252
444 445 170
445 446 898
446 447 363
447 448 101
448 449 831
449 450 651
450 451 628
451 452 643
452 453 473
453 454 612
454 455 644
455 456 892
456 457 420
457 458 406
458 459 157
459 460 999
460 461 79
461 462 609
462 463 794
463 464 391
464 465 155
465 466 236
466 467 872
467 468 148
468 469 977
469 470 713
470 471 41
471 472 622
472 473 343
473 474 184
474 475 795
475 476 680
476 477 519
477 478 124
478 479 195
479 480 162
480 481 969
481 482 269
482 483 932
483 484 162
484 485 143
485 486 198
486 487 937
487 488 297
488 489 959
489 490 183
490 491 962
491 492 661
492 493 403
493 494 135
494 495 830
495 496 237
496 497 898
497 498 85
498 499 120
499 500 938
500 501 575
501 502 397
502 503 934
503 504 95
504 505 529
505 506 637
506 507 657
507 508 458
508 509 867
509 510 961
510 511 793
511 512 314
512 513 330
513 514 853
514 515 684
515 516 221
516 517 498
517 518 105
518 519 181
519 520 686
520 521 111
521 522 906
522 523 458
523 524 142
524 525 159
525 526 178
526 527 751
527 528 362
528 529 946
529 530 801
530 531 127
531 532 663
532 533 816
533 534 881
534 535 890
535 536 992
536 537 746
537 538 319
538 539 177
539 540 21
540 541 758
541 542 734
542 543 415
543 544 898
544 545 164
545 546 410
546 547 743
547 548 133
548 549 274
549 550 429
550 551 346
551 552 100
552 553 674
553 554 809
554 555 558
555 556 35
556 557 355
557 558 702
558 559 248
559 560 837
560 561 598
561 562 470
562 563 920
563 564 172
564 565 370
565 566 966
566 567 591
567 568 752
568 569 61
569 570 37
570 571 825
571 572 841
572 573 466
573 574 197
574 575 240
575 576 727
576 577 441
577 578 151
578 579 301
579 580 53
580 581 303
581 582 104
582 583 492
583 584 112
584 585 989
585 586 82
586 587 731
587 588 59
588 589 806
589 590 279
590 591 161
591 592 510
592 593 69
593 594 349
594 595 521
595 596 279
596 597 362
597 598 520
598 599 855
599 600 863
600 601 456
601 602 451
602 603 775
603 604 961
604 605 568
605 606 797
606 607 99
607 608 774
608 609 660
609 610 182
610 611 601
611 612 916
612 613 793
613 614 109
614 615 765
615 616 965
616 617 365
617 618 487
618 619 868
619 620 426
620 621 923
621 622 819
622 623 826
623 624 103
624 625 396
625 626 107
626 627 174
627 628 261
628 629 578
629 630 592
630 631 572
631 632 983
632 633 371
633 634 136
634 635 718
635 636 141
636 637 372
637 638 959
638 639 285
639 640 900
640 641 183
641 642 437
642 643 916
643 644 62
644 645 350
645 646 86
646 647 193
647 648 650
648 649 472
649 650 119
650 651 341
651 652 188
652 653 66
653 654 854
654 655 336
655 656 942
656 657 273
657 658 978
658 659 303
659 660 56
660 661 973
661 662 131
662 663 969
663 664 494
664 665 510
665 666 664
666 667 455
667 668 17
668 669 150
669 670 277
670 671 453
671 672 178
672 673 809
673 674 652
674 675 894
675 676 190
676 677 550
677 678 685
678 679 156
679 680 439
680 681 725
681 682 797
682 683 566
683 684 389
684 685 432
685 686 406
686 687 540
687 688 661
688 689 886
689 690 625
690 691 395
691 692 382
692 693 403
693 694 352
694 695 735
695 696 5
696 697 281
697 698 66
698 699 306
699 700 35
700 701 659
701 702 320
702 703 573
703 704 185
704 705 376
705 706 74
706 707 54
707 708 750
708 709 988
709 710 389
710 711 446
711 712 418
712 713 978
713 714 13
714 715 1000
715 716 107
716 717 588
717 718 383
718 719 160
719 720 406
720 721 963
721 722 949
722 723 292
723 724 439
724 725 83
725 726 799
726 727 943
727 728 569
728 729 120
729 730 33
730 731 503
731 732 437
732 733 963
733 734 380
734 735 358
735 736 927
736 737 420
737 738 652
738 739 198
739 740 591
740 741 747
741 742 291
742 743 189
743 744 918
744 745 663
745 746 77
746 747 765
747 748 445
748 749 195
749 750 504
750 751 588
751 752 336
752 753 283
753 754 430
754 755 470
755 756 550
756 757 901
757 758 170
758 759 802
759 760 503
760 761 624
761 762 575
762 763 458
763 764 393
764 765 406
765 766 51
766 767 343
767 768 580
768 769 643
769 770 130
770 771 443
771 772 573
772 773 538
773 774 645
774 775 321
775 776 636
776 777 429
777 778 355
778 779 559
779 780 437
780 781 304
781 782 318
782 783 276
783 784 234
784 785 305
785 786 191
786 787 22
787 788 808
788 789 56
789 790 871
790 791 184
791 792 354
792 793 985
793 794 540
794 795 400
795 796 609
796 797 572
797 798 480
798 799 884
799 800 804
800 801 692
801 802 947
802 803 573
803 804 324
804 805 153
805 806 449
806 807 734
807 808 522
808 809 839
809 810 686
810 811 766
811 812 820
812 813 599
813 814 21
814 815 954
815 816 174
816 817 688
817 818 901
818 819 593
819 820 981
820 821 664
821 822 873
822 823 601
823 824 963
824 825 619
825 826 492
826 827 519
827 828 429
828 829 369
829 830 279
830 831 990
831 832 409
832 833 395
833 834 176
834 835 399
835 836 77
836 837 725
837 838 905
838 839 996
839 840 976
840 841 655
841 842 497
842 843 180
843 844 693
844 845 763
845 846 546
846 847 524
847 848 606
848 849 729
849 850 856
850 851 275
851 852 609
852 853 642
853 854 681
854 855 815
855 856 911
856 857 872
857 858 104
858 859 588
859 860 318
860 861 899
861 862 883
862 863 477
863 864 578
864 865 169
865 866 672
866 867 866
867 868 443
868 869 796
869 870 184
870 871 37
871 872 268
872 873 440
873 874 949
874 875 809
875 876 88
876 877 786
877 878 959
878 879 395
879 880 550
880 881 783
881 882 795
882 883 482
883 884 663
884 885 402
885 886 215
886 887 296
887 888 723
888 889 747
889 890 797
890 891 605
891 892 113
892 893 741
893 894 135
894 895 840
895 896 692
896 897 337
897 898 573
898 899 722
899 900 445
900 901 351
901 902 655
902 903 574
903 904 518
904 905 874
905 906 678
906 907 333
907 908 418
908 909 303
909 910 996
910 911 824
911 912 284
912 913 219
913 914 721
914 915 955
915 916 723
916 917 88
917 918 99
918 919 284
919 920 213
920 921 594
921 922 916
922 923 909
923 924 866
924 925 680
925 926 117
926 927 978
927 928 912
928 929 143
929 930 656
930 931 195
931 932 65
932 933 174
933 934 192
934 935 322
935 936 631
936 937 355
937 938 640
938 939 746
939 940 411
940 941 505
941 942 478
942 943 959
943 944 779
944 945 869
945 946 667
946 947 701
947 948 608
948 949 585
949 950 993
950 951 446
951 952 574
952 953 953
953 954 13
954 955 701
955 956 993
956 957 533
957 958 737
958 959 1000
959 960 715
960 961 865
961 962 633
962 963 529
963 964 765
964 965 652
965 966 758
966 967 277
967 968 631
968 969 861
969 970 200
970 971 278
971 972 374
972 973 845
973 974 875
974 975 360
975 976 93
976 977 376
977 978 358
978 979 549
979 980 988
980 981 660
981 982 524
982 983 930
983 984 708
984 985 611
985 986 717
986 987 543
987 988 462
988 989 292
989 990 897
990 991 889
991 992 113
992 993 465
993 994 768
994 995 368
995 996 677
996 997 81
997 998 77
998 14761 88
999 5207 422
1000 5184 783
1001 1937 997
1002 17569 659
1003 1132 912
1004 13972 914
1005 10289 959
1006 11720 72
1007 3965 324
1008 5238 274
1009 7498 380
1010 1994 368
1011 2398 187
1012 10540 474
1013 2577 978
1014 3327 785
1015 14935 674
1016 7551 163
1017 11755 423
1018 17311 606
1019 14072 88
1020 16103 119
1021 16219 748
1022 4484 177
1023 2424 180
1024 7441 717
1025 3866 649
1026 12649 205
1027 2995 249
1028 15569 539
1029 1631 672
1030 14087 46
1031 16873 681
1032 17045 309
1033 10263 191
1034 10968 837
1035 13574 908
1036 12923 646
1037 17753 453
1038 19370 242
1039 4359 860
1040 8391 457
1041 1516 729
1042 7817 532
1043 8838 78
1044 15544 397
1045 5615 833
1046 5868 440
1047 17666 988
1048 14223 58
1049 4929 194
1050 7383 253
1051 17749 79
1052 11268 168
1053 18975 489
1054 12015 149
1055 12793 861
1056 14595 735
1057 12507 799
1058 10957 543
1059 19292 701
1060 5075 120
1061 4132 565
1062 2804 211
1063 8640 138
1064 13577 950
1065 3955 728
1066 12686 678
1067 11290 278
1068 13734 863
1069 14368 519
1070 12819 965
1071 13284 150
1072 12295 705
1073 17476 926
1074 17635 351
1075 17263 409
1076 5311 834
1077 12165 348
1078 4267 51
1079 10977 90
1080 5664 843
1081 10452 475
1082 6757 640
1083 12876 232
1084 13705 615
1085 8024 253
1086 6687 874
1087 7566 115
1088 10458 687
1089 11668 791
1090 8238 190
1091 8615 701
1092 3737 35
1093 9701 883
1094 3410 886
1095 1679 678
1096 9791 720
1097 6913 984
1098 6221 917
1099 9201 168
1100 7109 5
1101 11148 872
1102 9083 26
1103 10431 777
1104 3471 779
1105 5788 826
1106 16644 248
1107 13056 852
1108 16401 207
1109 5706 802
1110 1720 946
1111 8624 992
1112 3691 205
1113 12527 238
1114 12334 908
1115 6244 183
1116 14423 79
1117 1636 990
1118 17461 127
1119 15667 523
1120 19350 387
1121 1745 967
1122 9024 908
1123 4705 649
1124 15446 460
1125 6043 531
1126 1989 526
1127 19388 843
1128 17951 190
1129 8228 983
1130 2762 45
1131 9982 938
1132 15291 540
1133 7904 264
1134 6960 966
1135 18940 905
1136 5114 741
1137 4023 199
1138 6354 909
1139 11590 877
1140 13428 515
1141 2905 135
1142 9533 775
1143 11557 817
1144 6553 165
1145 10645 886
1146 15661 810
1147 19337 22
1148 8608 484
1149 4049 698
1150 10584 775
1151 14475 758
1152 2568 808
1153 18828 667
1154 9485 613
1155 8762 350
1156 14498 997
1157 4781 301
1158 1443 16
1159 17627 772
1160 13050 790
1161 6262 183
1162 4499 624
1163 11649 158
1164 6671 95
1165 11325 826
1166 1944 193
1167 8564 17
1168 14695 132
1169 14322 446
1170 12735 991
1171 17375 397
1172 10874 85
1173 17566 853
1174 16730 870
1175 7376 433
1176 19486 679
1177 18441 481
1178 6756 979
1179 4714 205
1180 15637 114
1181 9021 118
1182 16633 771
1183 15653 386
1184 6021 783
1185 15309 617
1186 16916 911
1187 8372 69
1188 13511 184
1189 3264 802
1190 2932 149
1191 11346 827
1192 4633 285
1193 5823 671
1194 10268 498
1195 19025 659
1196 19354 719
1197 15232 214
1198 10865 936
1199 10816 156
1200 5898 901
1201 5579 282
1202 7291 163
1203 13473 574
1204 16113 22
1205 15167 727
1206 19354 465
1207 4440 565
1208 11467 501
1209 3585 961
1210 4508 970
1211 9014 123
1212 9556 305
1213 12470 571
1214 3798 663
1215 15269 665
1216 10353 131
1217 18013 600
1218 13261 805
1219 17952 503
1220 11388 35
1221 13396 232
1222 18048 759
1223 14000 897
1224 15974 336
1225 16679 683
1226 15418 452
1227 10465 349
1228 2797 257
1229 7208 693
1230 5809 694
1231 11101 96
1232 4432 542
1233 2915 92
1234 2937 829
1235 11041 201
1236 7314 580
1237 6872 676
1238 7807 437
1239 12057 994
1240 3456 467
1241 5207 666
1242 1357 319
1243 12170 141
1244 12553 507
1245 4430 415
1246 13484 691
1247 3336 503
1248 9285 563
1249 5555 48
1250 7942 879
1251 5708 301
1252 4938 659
1253 3975 567
1254 18854 559
1255 15673 417
1256 14087 68
1257 1992 204
1258 4993 309
1259 15665 688
1260 12501 213
1261 7044 689
1262 11319 90
1263 5517 718
1264 3865 122
1265 5161 508
1266 3513 313
1267 7579 343
1268 10984 129
1269 17863 70
1270 14265 293
1271 16398 41
1272 2959 624
1273 4513 607
1274 5322 333
1275 5646 332
1276 6343 389
1277 9576 467
1278 11063 882
1279 5148 748
1280 3223 128
1281 14400 356
1282 18768 243
1283 18269 89
1284 4232 393
1285 6452 130
1286 15232 936
1287 1476 124
1288 4064 234
1289 18527 88
1290 17746 251
1291 19181 631
1292 10421 966
1293 13765 701
1294 13171 790
1295 11385 766
1296 13587 708
1297 13759 580
1298 10346 808
1299 12250 194
1300 15479 510
1301 9480 181
1302 15636 182
1303 4157 970
1304 8418 779
1305 15236 851
1306 12040 339
1307 17223 867
1308 18089 649
1309 11052 518
1310 10867 748
1311 7017 303
1312 7273 184
1313 6895 498
1314 8232 607
1315 6663 656
1316 17546 370
1317 8666 397
1318 16930 386
1319 16254 335
1320 5368 315
1321 4248 615
1322 18926 778
1323 2993 564
1324 6281 796
1325 13487 661
1326 14696 402
1327 6819 17
1328 13483 949
1329 8916 824
1330 9515 281
1331 19099 693
1332 14568 783
1333 2243 622
1334 9554 309
1335 8845 391
1336 14613 198
1337 19431 244
1338 18784 423
1339 10617 573
1340 8536 992
1341 8495 852
1342 2104 484
1343 3620 804
1344 6071 289
1345 1681 615
1346 2027 820
1347 17534 137
1348 8718 644
1349 11623 614
1350 11887 152
1351 3160 374
1352 3723 178
1353 11477 118
1354 5073 54
1355 3965 710
1356 17768 639
1357 3490 787
1358 9698 144
1359 13944 20
1360 15488 107
1361 13212 234
1362 12720 415
1363 19412 807
1364 13103 506
1365 9136 308
1366 3676 737
1367 14108 618
1368 11458 925
1369 10046 476
1370 9179 716
1371 9132 628
1372 2525 865
1373 12328 990
1374 6058 768
1375 12417 542
1376 15817 693
1377 9978 947
1378 16240 476
1379 12497 830
1380 13845 861
1381 14428 890
1382 10849 680
1383 9374 114
1384 8028 778
1385 11065 416
1386 5585 718
1387 5845 977
1388 5128 369
1389 2914 688
1390 12000 880
1391 18378 681
1392 11342 218
1393 17951 434
1394 6424 824
1395 17092 763
1396 6366 505
1397 17480 687
1398 17340 358
1399 15000 491
1400 16531 663
1401 5247 548
1402 2875 975
1403 8329 861
1404 5679 294
1405 7319 734
1406 6755 489
1407 18560 765
1408 9592 532
1409 10296 454
1410 6081 727
1411 3655 876
1412 4546 600
1413 16955 980
1414 18577 971
1415 6492 787
1416 17632 361
1417 11364 610
1418 16171 859
1419 10296 259
1420 15109 968
1421 10346 19
1422 12288 935
1423 9291 571
1424 13150 532
1425 18604 908
1426 19081 393
1427 3267 173
1428 3379 496
1429 4240 445
1430 3109 132
1431 4855 320
1432 12489 42
1433 3677 962
1434 9660 599
1435 12378 928
1436 16319 486
1437 14674 177
1438 2430 998
1439 5713 48
1440 5154 8
1441 13566 820
1442 5866 52
1443 7105 762
1444 10112 533
1445 8216 212
1446 18640 745
1447 5406 78
1448 11036 320
1449 2050 739
1450 15812 502
1451 13033 601
1452 9571 269
1453 14760 637
1454 6446 811
1455 5388 488
1456 5094 799
1457 18144 340
1458 2902 347
1459 4702 418
1460 4117 972
1461 8651 143
1462 4974 807
1463 18555 515
1464 18005 283
1465 11570 166
1466 6002 436
1467 11486 126
1468 5460 44
1469 6961 221
1470 6939 873
1471 10788 200
1472 2360 679
1473 13336 385
1474 5287 478
1475 15771 275
1476 13577 502
1477 5237 2
1478 3753 989
1479 11891 206
1480 2877 255
1481 8399 683
1482 14035 827
1483 6569 886
1484 6314 646
1485 14329 524
1486 11034 188
1487 18185 314
1488 19107 975
1489 5266 898
1490 18787 274
1491 15666 219
1492 6754 255
1493 2760 539
1494 10169 93
1495 19063 746
1496 14657 351
1497 4576 346
1498 4556 767
1499 8704 343
1500 11263 69
1501 4134 727
1502 12863 864
1503 15870 669
1504 6350 624
1505 14831 600
1506 12642 533
1507 10269 691
1508 18862 923
1509 18401 343
1510 3071 106
1511 4781 227
1512 12066 314
1513 13360 68
1514 12355 244
1515 7971 96
1516 11360 747
1517 17384 55
1518 10680 287
1519 10908 692
1520 7513 634
1521 15601 171
1522 2688 328
1523 13871 675
1524 6050 830
1525 3021 750
1526 7041 585
1527 15915 565
1528 11709 324
1529 9333 726
1530 8377 438
1531 1648 546
1532 15617 98
1533 11079 784
1534 2083 539
1535 10181 448
1536 6481 209
1537 14458 775
1538 15758 464
1539 14044 455
1540 1668 178
1541 13749 425
1542 15952 145
1543 15252 41
1544 17867 659
1545 16468 528
1546 17131 127
1547 11430 611
1548 6809 103
1549 6151 471
1550 1965 345
1551 3100 70
1552 16690 754
1553 7090 815
1554 18339 361
1555 17973 843
1556 11866 817
1557 14185 587
1558 11105 907
1559 11038 282
1560 3287 82
1561 5207 213
1562 15709 835
1563 12571 692
1564 9348 149
1565 18041 742
1566 12165 627
1567 13260 645
1568 18704 685
1569 5889 890
1570 13016 464
1571 13366 788
1572 9612 56
1573 4113 214
1574 4286 364
1575 11025 606
1576 17778 410
1577 16949 195
1578 8978 359
1579 10912 694
1580 16135 469
1581 11478 297
1582 11928 268
1583 11227 976
1584 5249 583
1585 14519 630
1586 5110 359
1587 2151 84
1588 6364 416
1589 11425 561
1590 11103 908
1591 3168 2
1592 12666 61
1593 15307 115
1594 5372 894
1595 13223 605
1596 10457 29
1597 16243 209
1598 18013 532
1599 15745 597
1600 7170 287
1601 19496 444
1602 3299 316
1603 1943 824
1604 8238 187
1605 17063 327
1606 3514 900
1607 10548 59
1608 16994 341
1609 12482 506
1610 16364 211
1611 19457 669
1612 12948 562
1613 5462 862
1614 10084 631
1615 7262 647
1616 13423 801
1617 15731 54
1618 8747 985
1619 16956 154
1620 5388 773
1621 12272 377
1622 16123 67
1623 1888 891
1624 9837 115
1625 17621 606
1626 12899 464
1627 13858 501
1628 12872 145
1629 7085 508
1630 7231 861
1631 11123 714
1632 10530 96
1633 17424 70
1634 8960 905
1635 12992 183
1636 9871 603
1637 16347 281
1638 12047 598
1639 9747 373
1640 17125 404
1641 15463 880
1642 7414 174
1643 4248 684
1644 6318 677
1645 8685 41
1646 11009 631
1647 2009 806
1648 18177 277
1649 6071 621
1650 5584 641
1651 7961 919
1652 8171 117
1653 17241 180
1654 12958 980
1655 3418 516
1656 13807 599
1657 11331 193
1658 10161 58
1659 10363 871
1660 17126 302
1661 2189 909
1662 6165 66
1663 5422 602
1664 18020 229
1665 19417 607
1666 8306 267
1667 16762 173
1668 5165 827
1669 18644 749
1670 4583 439
1671 18312 242
1672 13860 813
1673 16556 74
1674 3318 869
1675 6787 479
1676 11407 648
1677 12460 320
1678 6458 844
1679 11861 60
1680 18083 352
1681 10133 325
1682 7066 329
1683 7744 622
1684 15910 477
1685 18883 576
1686 12106 240
1687 2978 4
1688 7169 947
1689 16522 100
1690 16180 559
1691 12993 389
1692 2478 26
1693 9175 926
1694 15050 272
1695 15472 551
1696 4108 1000
1697 3572 849
1698 18598 962
1699 8664 447
1700 11638 226
1701 5617 363
1702 16964 773
1703 11290 289
1704 18491 529
1705 12212 861
1706 10416 224
1707 17800 150
1708 11101 202
1709 8411 182
1710 16203 146
1711 2569 239
1712 7679 484
1713 13361 69
1714 14891 547
1715 1741 444
1716 5481 880
1717 13461 720
1718 5994 596
1719 6726 632
1720 18117 167
1721 18661 124
1722 11076 282
1723 10705 153
1724 2158 818
1725 18318 442
1726 2542 717
1727 10900 60
1728 14233 59
1729 16954 710
1730 13773 523
1731 6530 16
1732 7609 258
1733 2446 167
1734 11396 190
1735 7167 365
1736 14157 554
1737 9537 37
1738 6572 168
1739 6829 508
1740 15671 605
1741 18493 241
1742 11939 553
1743 13725 170
1744 3265 965
1745 7849 294
1746 6180 866
1747 17694 422
1748 17308 920
1749 19300 334
1750 7395 672
1751 12828 552
1752 13501 448
1753 5077 923
1754 19036 283
1755 11101 84
1756 4128 613
1757 9808 699
1758 18786 918
1759 2043 264
1760 16638 357
1761 15613 476
1762 7960 308
1763 5362 426
1764 15406 606
1765 15661 686
1766 15973 965
1767 16182 672
1768 3520 45
1769 4819 821
1770 6366 119
1771 13405 708
1772 10514 789
1773 5847 91
1774 14217 608
1775 9343 480
1776 4915 986
1777 7023 43
1778 11274 966
1779 12696 555
1780 7865 655
1781 17249 298
1782 7790 478
1783 19055 650
1784 9671 176
1785 1897 617
1786 5209 345
1787 8692 425
1788 9457 948
1789 8410 39
1790 17603 822
1791 19043 803
1792 6175 155
1793 19289 77
1794 15951 465
1795 5390 535
1796 14619 108
1797 15297 577
1798 13728 588
1799 6013 210
1800 7817 3
1801 10265 685
1802 8024 313
1803 4780 865
1804 13535 544
1805 5498 419
1806 19277 484
1807 18445 583
1808 16564 455
1809 8724 895
1810 5554 827
1811 11961 620
1812 9411 10
1813 10097 40
1814 5015 175
1815 14470 199
1816 8767 774
1817 15417 568
1818 14258 401
1819 18918 377
1820 8495 591
1821 5533 873
1822 12305 335
1823 3631 465
1824 10402 268
1825 17399 752
1826 18832 223
1827 11059 797
1828 11672 809
1829 14165 829
1830 6825 381
1831 7731 810
1832 13530 601
1833 2433 233
1834 3377 598
1835 17776 232
1836 17024 921
1837 16637 111
1838 12938 216
1839 13924 644
1840 9270 24
1841 5866 519
1842 5620 263
1843 5694 561
1844 9876 683
1845 18510 695
1846 14024 962
1847 16915 203
1848 10773 968
1849 17875 244
1850 12507 934
1851 12653 851
1852 9445 57
1853 4785 182
1854 4288 760
1855 3148 795
1856 9567 494
1857 5001 846
1858 17391 987
1859 2003 553
1860 5358 486
1861 3285 229
1862 18077 815
1863 14424 646
1864 14013 192
1865 18638 38
1866 10440 427
1867 16518 371
1868 17214 314
1869 4592 284
1870 16784 693
1871 17500 969
1872 5670 783
1873 10535 652
1874 15330 969
1875 12090 227
1876 4227 187
1877 8218 201
1878 15638 310
1879 4185 641
1880 13708 345
1881 2962 309
1882 6183 957
1883 13146 446
1884 18465 396
1885 10781 864
1886 8008 375
1887 14754 576
1888 6738 832
1889 17489 44
1890 16280 941
1891 5858 452
1892 3096 458
1893 10026 823
1894 9076 27
1895 18541 28
1896 3271 577
1897 10490 742
1898 9320 634
1899 5352 238
1900 8133 688
1901 7063 665
1902 3676 921
1903 9440 872
1904 14011 310
1905 19125 313
1906 10187 969
1907 14751 678
1908 5059 190
1909 4107 729
1910 17010 562
1911 12364 393
1912 11142 811
1913 3445 986
1914 6416 159
1915 13240 928
1916 6921 326
1917 12693 603
1918 13773 609
1919 6338 806
1920 15618 302
1921 18162 656
1922 15848 67
1923 9368 154
1924 10998 877
1925 15525 872
1926 4064 884
1927 11129 275
1928 18733 505
1929 12138 679
1930 11946 78
1931 2647 210
1932 3392 807
1933 16307 161
1934 6549 485
1935 11383 777
1936 10708 804
1937 3676 353
1938 17179 294
1939 12383 675
1940 17159 696
1941 13190 399
1942 7502 276
1943 14011 430
1944 7759 727
1945 3650 156
1946 7816 447
1947 16181 433
1948 10370 964
1949 18377 542
1950 14178 121
1951 9550 274
1952 8731 745
1953 3039 255
1954 18430 813
1955 2184 365
1956 13439 962
1957 1983 107
1958 17169 404
1959 9658 158
1960 17820 300
1961 5445 971
1962 12339 690
1963 9918 771
1964 9948 786
1965 9126 934
1966 4935 481
1967 16864 941
1968 10158 878
1969 3531 979
1970 11652 455
1971 8061 510
1972 7583 751
1973 4635 524
1974 10714 618
1975 8832 27
1976 18677 879
1977 9334 566
1978 9722 785
1979 14264 465
1980 11311 652
1981 5381 47
1982 14891 876
1983 17322 73
1984 15654 883
1985 17516 103
1986 17235 719
1987 10857 367
1988 9181 664
1989 13543 734
1990 12420 681
1991 3201 202
1992 16730 183
1993 15983 384
1994 15668 140
1995 3678 338
1996 12432 945
1997 6777 487
1998 3585 381
1999 16385 359
2000 5595 55
2001 10142 649
2002 19456 485
2003 17447 459
2004 13042 499
2005 5953 959
2006 11513 1
2007 4118 767
2008 2548 288
2009 9402 429
2010 3058 380
2011 18022 595
2012 17968 544
2013 8132 431
2014 18585 269
2015 16536 484
2016 9766 678
2017 4707 173
2018 7771 968
2019 18152 49
2020 2540 539
2021 2281 855
2022 9618 570
2023 8348 414
2024 7637 56
2025 16814 325
2026 5783 675
2027 12939 113
2028 16872 557
2029 11986 420
2030 19133 74
2031 8377 991
2032 6619 895
2033 3290 861
2034 11372 751
2035 6929 455
2036 8790 533
2037 13762 753
2038 9629 337
2039 9908 549
2040 8634 458
2041 8851 758
2042 12158 629
2043 8919 371
2044 13523 954
2045 11726 66
2046 4901 13
2047 4148 392
2048 11865 16
2049 12500 867
2050 11386 191
2051 14761 423
2052 7280 988
2053 14073 729
2054 9901 406
2055 4648 282
2056 5975 805
2057 17745 625
2058 14909 418
2059 11922 338
2060 11308 981
2061 11809 193
2062 3731 500
2063 5485 248
2064 15083 159
2065 5732 505
2066 3995 91
2067 7195 740
2068 7354 717
2069 11325 79
2070 4666 426
2071 10709 717
2072 4128 646
2073 17558 896
2074 15983 733
2075 11285 827
2076 5151 274
2077 11074 467
2078 16592 783
2079 5713 347
2080 7235 951
2081 8739 632
2082 8606 277
2083 9955 245
2084 18747 484
2085 16970 770
2086 11915 300
2087 19490 641
2088 12503 468
2089 11405 164
2090 5789 549
2091 2106 779
2092 17365 676
2093 16785 965
2094 2463 452
2095 14140 80
2096 4905 84
2097 16672 353
2098 5700 313
2099 10756 992
2100 6814 806
2101 3470 709
2102 19005 998
2103 15348 153
2104 7028 36
2105 3968 324
2106 6814 614
2107 16586 561
2108 12422 622
2109 10123 259
2110 14456 634
2111 8590 844
2112 8169 724
2113 19487 236
2114 16103 749
2115 8252 56
2116 18549 852
2117 10614 752
2118 7631 513
2119 4359 902
2120 17893 92
2121 3290 729
2122 3021 906
2123 9150 540
2124 5842 323
2125 11400 888
2126 5284 806
2127 6238 935
2128 9898 789
2129 9255 920
2130 15250 299
2131 8350 517
2132 9228 42
2133 4275 200
2134 17473 969
2135 10589 785
2136 11473 536
2137 2241 84
2138 18566 3
2139 13699 960
2140 11505 232
2141 15818 781
2142 9539 168
2143 16354 268
2144 16126 41
2145 7211 28
2146 5357 3
2147 4103 916
2148 14503 628
2149 12559 504
2150 18800 264
2151 15555 155
2152 3788 884
2153 2895 152
2154 14538 645
2155 18007 287
2156 6537 364
2157 11407 675
2158 10075 871
2159 10735 320
2160 15489 907
2161 18596 861
2162 10468 644
2163 9895 33
2164 15704 93
2165 18195 779
2166 15601 944
2167 15992 633
2168 12767 729
2169 13047 312
2170 17295 250
2171 3048 312
2172 17752 805
2173 10650 212
2174 10984 386
2175 5437 240
2176 15379 545
2177 2514 274
2178 8868 473
2179 11525 839
2180 4515 335
2181 12021 913
2182 2864 290
2183 12695 703
2184 13601 482
2185 9723 775
2186 5094 172
2187 15804 517
2188 17660 762
2189 15387 867
2190 6044 948
2191 16384 237
2192 4238 373
2193 5266 186
2194 4573 810
2195 9883 862
2196 17142 35
2197 8898 966
2198 15259 738
2199 8295 345
2200 16362 391
2201 12803 796
2202 14116 654
2203 19033 813
2204 6941 993
2205 17802 36
2206 3504 896
2207 12898 494
2208 16199 753
2209 15696 267
2210 16496 770
2211 16199 373
2212 10627 477
2213 13931 571
2214 17663 686
2215 18007 779
2216 17598 543
2217 10695 755
2218 11345 724
2219 15465 200
2220 15220 687
2221 5764 796
2222 18494 173
2223 10008 304
2224 16479 347
2225 17612 448
2226 12588 103
2227 15587 733
2228 3496 374
2229 13389 813
2230 3425 403
2231 9148 577
2232 19201 124
2233 13831 288
2234 8843 744
2235 19163 31
2236 18119 492
2237 8047 358
2238 18670 52
2239 17123 18
2240 2545 850
2241 13011 579
2242 12987 410
2243 16196 510
2244 4319 193
2245 8510 717
2246 4033 452
2247 10366 52
2248 3470 845
2249 16233 931
2250 7245 820
2251 3020 258
2252 11557 347
2253 4507 416
2254 8764 233
2255 12591 40
2256 3535 864
2257 6678 938
2258 5621 686
2259 17643 121
2260 16936 91
2261 7604 63
2262 3980 248
2263 3554 393
2264 14431 57
2265 13790 350
2266 6392 438
2267 3240 958
2268 18587 22
2269 9965 317
2270 3667 688
2271 4651 499
2272 6893 350
2273 7926 904
2274 9211 160
2275 3029 562
2276 5618 582
2277 3216 747
2278 10535 199
2279 8289 499
2280 11324 693
2281 14693 667
2282 18937 446
2283 2591 776
2284 7176 951
2285 14046 132
2286 11524 129
2287 3628 171
2288 15359 841
2289 3767 724
2290 17926 855
2291 8932 205
2292 4653 306
2293 10957 532
2294 19281 427
2295 5801 263
2296 16369 706
2297 7415 819
2298 2631 363
2299 19322 72
2300 3834 14
2301 11286 867
2302 5217 382
2303 4094 698
2304 15446 787
2305 15979 486
2306 18597 260
2307 10541 535
2308 4036 139
2309 15375 819
2310 13366 111
2311 14963 85
2312 6769 476
2313 6440 789
2314 9344 28
2315 7148 60
2316 11815 553
2317 12061 232
2318 19110 545
2319 15215 653
2320 17323 103
2321 13432 692
2322 15339 144
2323 16702 194
2324 18445 541
2325 12716 790
2326 18095 689
2327 8067 367
2328 17735 352
2329 6718 379
2330 9194 463
2331 17265 215
2332 3356 383
2333 10019 211
2334 18579 851
2335 10042 667
2336 4887 436
2337 18808 778
2338 9433 6
2339 17692 168
2340 16210 112
2341 14513 357
2342 13732 493
2343 18668 376
2344 14929 624
2345 7628 589
2346 17629 662
2347 10389 115
2348 15184 99
2349 15972 949
2350 17990 949
2351 6711 990
2352 10232 407
2353 16468 900
2354 16180 448
2355 10844 346
2356 10054 611
2357 13610 413
2358 15537 253
2359 9318 689
2360 4174 119
2361 15619 243
2362 13485 275
2363 18597 363
2364 17739 436
2365 14187 520
2366 10193 752
2367 19444 132
2368 7832 167
2369 16500 471
2370 10232 799
2371 18809 176
2372 4563 338
2373 7772 852
2374 14635 730
2375 3553 200
2376 11481 343
2377 2962 145
2378 11141 162
2379 18371 886
2380 8977 995
2381 16622 850
2382 5640 476
2383 12552 608
2384 7271 892
2385 8304 547
2386 8760 35
2387 13040 693
2388 19235 672
2389 18107 680
2390 6918 998
2391 11539 37
2392 7349 365
2393 18889 322
2394 7103 797
2395 5104 561
2396 19294 85
2397 10010 787
2398 14572 828
2399 3404 472
2400 12566 466
2401 17485 936
2402 7745 279
2403 3408 497
2404 13670 861
2405 7546 36
2406 3622 994
2407 2923 278
2408 15296 171
2409 19428 626
2410 3712 541
2411 8627 835
2412 16153 408
2413 13492 957
2414 3052 238
2415 16190 386
2416 3983 609
2417 12561 855
2418 7340 623
2419 14037 110
2420 6174 48
2421 11699 743
2422 12050 373
2423 16859 383
2424 14894 207
2425 14458 185
2426 16522 865
2427 3297 106
2428 9575 254
2429 8334 1
2430 7200 60
2431 8739 729
2432 9305 240
2433 12006 56
2434 3515 660
2435 14596 782
2436 15617 475
2437 18730 829
2438 17450 84
2439 14225 378
2440 17839 278
2441 9536 748
2442 10559 318
2443 4852 187
2444 18194 765
2445 10542 68
2446 4536 97
2447 6388 764
2448 10512 329
2449 6518 206
2450 16363 239
2451 6875 789
2452 15803 74
2453 8203 539
2454 15415 998
2455 8264 393
2456 15598 760
2457 16711 903
2458 15513 919
2459 10291 297
2460 8680 183
2461 7077 544
2462 11159 457
2463 9274 833
2464 5907 64
2465 8689 246
2466 4971 268
2467 6254 766
2468 14162 141
2469 4350 855
2470 6592 997
2471 4573 842
2472 7151 967
2473 18053 326
2474 16519 29
2475 17562 534
2476 15143 528
2477 13376 393
2478 14942 308
2479 7447 921
2480 8287 476
2481 16424 566
2482 9520 668
2483 8044 262
2484 15462 268
2485 16277 524
2486 16357 983
2487 3660 80
2488 16044 811
2489 5420 145
2490 4545 61
2491 4177 309
2492 3392 677
2493 3964 922
2494 13288 350
2495 6902 892
2496 14938 429
2497 17149 537
2498 7133 492
2499 12738 119
2500 18730 766
2501 6587 174
2502 9380 212
2503 3969 877
2504 12591 912
2505 13119 64
2506 16215 536
2507 11966 748
2508 10743 797
2509 10211 403
2510 2623 560
2511 16949 874
2512 8593 971
2513 11919 448
2514 13825 647
2515 2925 172
2516 17491 347
2517 3971 609
2518 10077 651
2519 8669 219
2520 15212 987
2521 12042 54
2522 18136 940
2523 8575 902
2524 18180 202
2525 9195 19
2526 4812 913
2527 10540 692
2528 5998 112
2529 8503 925
2530 14252 873
2531 7622 21
2532 19157 878
2533 5568 963
2534 19147 968
2535 6324 236
2536 11867 434
2537 6431 918
2538 9929 831
2539 10737 290
2540 9444 946
2541 19443 462
2542 6780 608
2543 15707 570
2544 9737 305
2545 5957 307
2546 5293 162
2547 15485 703
2548 18953 274
2549 2798 551
2550 5189 65
2551 5811 150
2552 16134 350
2553 15747 843
2554 12532 742
2555 2666 976
2556 11403 159
2557 17393 675
2558 19428 71
2559 8821 752
2560 11655 393
2561 17032 821
2562 9452 627
2563 11810 3
2564 17444 167
2565 2997 245
2566 14344 721
2567 8895 345
2568 17373 219
2569 4353 848
2570 15504 377
2571 11304 375
2572 10307 61
2573 5257 123
2574 17744 622
2575 10143 494
2576 5828 94
2577 15484 885
2578 10666 601
2579 6128 847
2580 19257 396
2581 16260 242
2582 2664 596
2583 5050 523
2584 15798 287
2585 17304 425
2586 11640 807
2587 16940 866
2588 3977 658
2589 6973 270
2590 14302 554
2591 15876 233
2592 9037 951
2593 15043 357
2594 7508 515
2595 18930 516
2596 2797 141
2597 6651 939
2598 7164 906
2599 11175 296
2600 8197 882
2601 17116 991
2602 6540 150
2603 8915 164
2604 6890 303
2605 13617 980
2606 10970 23
2607 6118 151
2608 13500 30
2609 8887 550
2610 8460 866
2611 11666 19
2612 9335 882
2613 9330 997
2614 13873 293
2615 11859 567
2616 9421 781
2617 18442 342
2618 16302 825
2619 15159 737
2620 11524 181
2621 16143 551
2622 11323 604
2623 13328 213
2624 16570 806
2625 3757 960
2626 15518 344
2627 17602 571
2628 17069 314
2629 18329 851
2630 15795 463
2631 9818 505
2632 9405 767
2633 15030 194
2634 14214 135
2635 15026 781
2636 15042 154
2637 7464 993
2638 7780 355
2639 5480 241
2640 5499 217
2641 8288 913
2642 18961 11
2643 5652 761
2644 4779 355
2645 12251 426
2646 18345 981
2647 11598 756
2648 17232 545
2649 14334 640
2650 10534 309
2651 12884 292
2652 19003 612
2653 12953 4
2654 4883 99
2655 3284 430
2656 5620 331
2657 11264 43
2658 9679 833
2659 4604 251
2660 3840 753
2661 8508 198
2662 2714 62
2663 3684 521
2664 16955 91
2665 17760 365
2666 10561 82
2667 16848 828
2668 7305 840
2669 12926 129
2670 14738 198
2671 4657 411
2672 3125 729
2673 15481 980
2674 13004 294
2675 18021 639
2676 14568 183
2677 11229 934
2678 19119 465
2679 14098 919
2680 4549 229
2681 2993 721
2682 17893 921
2683 15273 661
2684 12145 742
2685 14272 114
2686 19471 162
2687 16268 729
2688 16461 358
2689 12605 527
2690 18343 377
2691 6206 728
2692 11099 704
2693 7456 254
2694 13231 59
2695 11153 471
2696 17495 243
2697 12433 654
2698 5523 694
2699 17462 657
2700 4500 597
2701 14854 929
2702 4005 51
2703 12089 788
2704 3125 979
2705 6148 187
2706 18822 69
2707 3344 135
2708 7947 971
2709 17122 890
2710 6570 598
2711 9104 641
2712 5731 167
2713 12208 353
2714 17811 21
2715 11995 132
2716 18734 607
2717 13974 493
2718 16426 32
2719 3967 451
2720 11959 160
2721 5532 268
2722 13210 856
2723 5395 127
2724 10133 588
2725 15263 686
2726 7977 258
2727 16563 30
2728 12022 480
2729 15600 438
2730 16208 759
2731 11812 401
2732 4118 193
2733 9713 335
2734 3823 323
2735 19205 797
2736 15822 735
2737 8265 396
2738 8034 500
2739 12907 82
2740 17841 285
2741 8446 51
2742 8304 584
2743 7825 479
2744 4668 966
2745 2905 280
2746 6818 411
2747 10328 74
2748 5820 653
2749 5482 888
2750 11882 831
2751 16900 656
2752 5033 391
2753 3361 367
2754 16777 998
2755 11194 446
2756 18276 292
2757 15867 83
2758 18493 970
2759 8101 323
2760 3677 250
2761 6175 455
2762 10677 909
2763 16904 8
2764 6998 238
2765 9285 342
2766 19140 92
2767 16295 868
2768 11749 224
2769 9063 425
2770 13392 706
2771 13075 567
2772 5734 46
2773 6431 152
2774 15108 689
2775 17065 146
2776 2978 185
2777 4531 386
2778 6707 55
2779 14565 312
2780 7286 121
2781 10762 492
2782 3491 469
2783 16705 275
2784 8402 711
2785 15425 162
2786 8116 524
2787 14491 515
2788 17663 598
2789 12237 597
2790 16645 766
2791 13536 775
2792 6641 570
2793 17940 8
2794 7284 906
2795 3945 653
2796 18253 723
2797 8871 337
2798 8787 106
2799 5523 736
2800 7092 475
2801 17019 857
2802 7280 795
2803 9474 13
2804 6305 681
2805 7574 451
2806 16864 318
2807 8997 858
2808 15791 121
2809 6083 812
2810 14762 935
2811 18919 264
2812 12612 831
2813 11155 196
2814 8670 18
2815 15465 563
2816 11765 913
2817 19416 857
2818 14833 181
2819 18289 771
2820 13327 870
2821 14384 204
2822 6075 533
2823 3627 686
2824 2852 773
2825 6520 245
2826 4355 414
2827 6856 112
2828 3077 786
2829 12226 323
2830 5556 212
2831 15834 250
2832 6621 703
2833 4787 642
2834 10396 619
2835 4414 579
2836 11304 485
2837 13870 923
2838 11189 762
2839 4299 640
2840 13057 450
2841 13388 331
2842 10453 784
2843 15710 581
2844 6039 323
2845 16905 2
2846 11286 273
2847 3237 569
2848 10043 900
2849 5008 351
2850 14391 448
2851 14371 527
2852 12801 244
2853 8674 572
2854 4500 230
2855 7960 512
2856 8962 770
2857 4690 198
2858 2983 150
2859 14637 432
2860 6260 555
2861 12623 622
2862 12855 100
2863 16124 69
2864 3714 60
2865 17968 222
2866 15795 537
2867 11384 217
2868 14215 988
2869 5723 883
2870 16765 53
2871 15567 674
2872 9307 99
2873 5933 34
2874 14334 510
2875 10176 247
2876 11594 286
2877 17053 954
2878 9362 505
2879 11292 934
2880 12182 989
2881 8931 344
2882 4303 290
2883 8614 157
2884 18250 306
2885 19466 454
2886 14824 96
2887 4890 640
2888 18813 216
2889 14767 192
2890 17451 674
2891 7422 594
2892 12953 577
2893 17429 785
2894 9939 838
2895 9518 168
2896 11149 594
2897 7192 770
2898 13625 480
2899 8630 762
2900 13196 405
2901 19409 253
2902 8461 425
2903 11875 860
2904 8761 333
2905 15606 679
2906 6516 604
2907 18582 833
2908 5659 463
2909 4950 534
2910 4099 37
2911 18527 456
2912 11149 343
2913 18299 66
2914 8103 974
2915 10679 966
2916 9677 824
2917 10288 345
2918 12538 506
2919 8475 692
2920 11980 430
2921 12036 300
2922 14710 416
2923 4324 5
2924 4740 409
2925 16047 218
2926 5771 432
2927 8035 887
2928 15676 266
2929 18349 879
2930 18417 538
2931 18209 516
2932 9913 344
2933 18980 15
2934 8212 507
2935 18243 972
2936 7085 321
2937 15709 506
2938 8628 117
2939 16610 852
2940 13637 534
2941 6799 992
2942 14427 976
2943 3248 209
2944 4357 40
2945 10366 966
2946 6465 38
2947 17528 117
2948 17275 357
2949 16678 943
2950 14120 615
2951 16742 137
2952 5741 734
2953 12363 364
2954 19100 186
2955 17724 308
2956 3561 125
2957 4698 621
2958 18800 712
2959 13012 870
2960 13898 285
2961 3324 912
2962 6797 283
2963 15424 68
2964 15640 863
2965 16897 21
2966 14521 16
2967 18871 914
2968 7943 862
2969 7484 766
2970 4830 95
2971 13701 223
2972 10057 965
2973 13903 911
2974 5199 850
2975 17411 317
2976 6450 915
2977 5145 65
2978 15843 19
2979 15710 220
2980 10235 315
2981 12667 535
2982 17623 474
2983 8449 121
2984 7809 292
2985 18331 366
2986 18842 362
2987 10993 183
2988 8736 801
2989 3463 813
2990 15818 739
2991 17122 851
2992 15491 759
2993 10532 319
2994 11325 635
2995 12981 401
2996 13774 58
2997 10185 603
2998 11655 544
2999 5098 134
3000 7505 568
3001 4526 937
3002 3369 217
3003 8175 507
3004 3439 798
3005 13292 550
3006 9402 125
3007 18343 208
3008 17975 424
3009 7501 300
3010 14944 791
3011 7151 976
3012 3091 496
3013 14776 163
3014 10120 427
3015 13886 622
3016 11970 256
3017 18668 189
3018 18710 312
3019 18403 88
3020 13247 2
3021 8942 635
3022 14182 804
3023 8653 854
3024 11556 485
3025 4057 497
3026 9039 347
3027 13239 596
3028 15325 344
3029 19355 256
3030 14746 578
3031 17680 705
3032 11639 952
3033 16857 133
3034 5221 400
3035 7099 228
3036 7639 850
3037 8381 525
3038 17076 806
3039 14325 658
3040 9696 795
3041 4075 735
3042 15626 516
3043 5602 183
3044 13248 220
3045 6573 787
3046 17712 90
3047 5752 526
3048 8645 6
3049 12268 598
3050 4409 120
3051 17622 861
3052 18852 708
3053 16210 969
3054 11787 256
3055 16459 910
3056 13077 383
3057 5202 99
3058 17237 899
3059 9038 901
3060 10108 769
3061 9716 180
3062 18666 242
3063 17054 341
3064 16492 652
3065 17656 548
3066 19064 612
3067 9987 947
3068 8869 29
3069 18211 496
3070 18252 144
3071 4263 27
3072 17276 628
3073 8952 646
3074 11430 834
3075 5825 622
3076 6340 735
3077 15852 829
3078 12554 985
3079 12745 703
3080 18569 361
3081 19387 471
3082 18976 926
3083 8179 111
3084 11969 262
3085 19033 228
3086 4637 496
3087 8019 238
3088 12159 270
3089 4093 923
3090 8417 774
3091 10013 397
3092 17255 530
3093 10743 114
3094 15834 361
3095 10559 598
3096 9079 43
3097 12901 740
3098 14815 508
3099 17818 240
3100 9469 751
3101 5336 63
3102 9887 960
3103 18561 239
3104 16180 581
3105 9466 66
3106 11531 269
3107 16905 814
3108 13996 689
3109 15561 960
3110 12333 362
3111 18595 440
3112 5520 663
3113 16989 342
3114 14831 560
3115 16189 337
3116 17250 402
3117 15222 543
3118 8545 61
3119 14531 429
3120 18965 580
3121 16893 12
3122 16062 757
3123 9384 877
3124 19266 247
3125 16601 597
3126 4002 523
3127 16482 374
3128 14945 638
3129 10608 520
3130 16463 785
3131 16065 351
3132 11311 837
3133 4344 35
3134 11832 952
3135 12536 675
3136 5848 530
3137 15379 775
3138 10740 968
3139 12415 475
3140 3210 282
3141 18726 625
3142 12233 610
3143 17961 568
3144 7687 904
3145 17733 314
3146 5908 676
3147 9362 878
3148 3840 818
3149 17046 677
3150 17916 905
3151 5077 419
3152 10293 980
3153 10951 901
3154 7923 793
3155 8948 300
3156 13784 677
3157 16149 105
3158 4168 305
3159 16745 564
3160 16769 283
3161 6613 629
3162 9788 946
3163 5349 266
3164 4158 880
3165 8439 683
3166 16408 45
3167 4674 117
3168 6119 645
3169 18017 577
3170 7696 702
3171 13710 39
3172 10206 491
3173 17968 671
3174 18739 379
3175 8776 903
3176 5909 580
3177 10127 823
3178 5053 416
3179 6545 456
3180 8021 665
3181 7859 658
3182 11609 847
3183 6647 664
3184 6639 113
3185 18456 351
3186 5078 732
3187 10035 683
3188 13616 580
3189 6232 143
3190 16659 104
3191 5435 417
3192 3844 18
3193 16069 424
3194 4537 957
3195 14431 363
3196 14812 674
3197 10211 253
3198 13457 149
3199 8772 5
3200 7039 186
3201 8047 81
3202 17812 557
3203 8687 378
3204 9878 313
3205 18362 377
3206 10749 230
3207 14806 460
3208 4745 54
3209 5693 708
3210 7070 405
3211 16284 623
3212 14409 363
3213 18326 168
3214 8290 507
3215 15233 11
3216 9240 178
3217 13935 531
3218 6470 103
3219 5599 698
3220 14286 338
3221 6729 665
3222 12723 256
3223 16535 676
3224 7695 902
3225 5642 395
3226 14142 820
3227 9221 727
3228 19015 785
3229 18419 184
3230 4236 872
3231 6213 816
3232 10214 402
3233 13203 995
3234 15195 196
3235 13123 999
3236 5027 191
3237 5496 572
3238 15456 666
3239 9278 545
3240 8768 42
3241 4832 658
3242 17464 92
3243 7299 895
3244 15730 592
3245 14966 271
3246 15520 192
3247 10015 10
3248 5911 417
3249 10009 392
3250 6263 120
3251 7677 900
3252 5729 834
3253 16944 918
3254 15814 305
3255 14079 434
3256 5027 107
3257 11920 793
3258 9253 987
3259 7217 277
3260 19495 128
3261 12247 748
3262 11661 551
3263 11979 324
3264 8206 553
3265 17032 409
3266 9984 187
3267 14865 350
3268 15400 862
3269 11647 886
3270 10406 64
3271 8384 852
3272 18301 442
3273 16793 317
3274 14075 189
3275 13206 680
3276 11216 547
3277 13401 635
3278 8405 866
3279 15269 485
3280 12593 195
3281 15465 778
3282 18405 717
3283 11729 358
3284 3548 726
3285 4845 858
3286 18976 998
3287 12165 729
3288 18830 74
3289 17305 627
3290 16783 976
3291 11936 137
3292 13973 534
3293 8987 727
3294 16425 789
3295 3580 366
3296 11895 565
3297 3682 860
3298 18777 670
3299 4241 980
3300 13290 872
3301 18927 184
3302 4605 465
3303 19420 865
3304 7578 344
3305 5157 898
3306 3419 415
3307 17910 979
3308 14479 59
3309 11748 348
3310 14758 785
3311 9553 429
3312 18725 678
3313 6796 763
3314 13604 962
3315 15685 268
3316 11155 512
3317 7825 196
3318 10205 338
3319 7334 856
3320 8228 903
3321 3900 202
3322 11415 96
3323 10243 887
3324 17216 702
3325 15129 148
3326 12671 850
3327 10773 922
3328 9193 5
3329 4576 721
3330 10204 869
3331 18476 31
3332 15844 844
3333 5850 484
3334 8069 420
3335 16836 195
3336 4337 682
3337 7084 967
3338 11990 656
3339 16234 550
3340 7666 108
3341 12734 244
3342 13036 958
3343 3833 963
3344 5875 498
3345 16451 859
3346 16036 409
3347 10729 662
3348 9016 3
3349 16914 925
3350 16683 111
3351 18651 648
3352 13133 376
3353 15163 491
3354 3590 45
3355 10146 20
3356 8562 922
3357 13047 78
3358 8400 408
3359 6195 723
3360 7757 555
3361 8999 730
3362 14804 299
3363 10268 254
3364 13162 903
3365 18757 628
3366 14416 993
3367 11565 422
3368 8101 154
3369 16466 120
3370 17914 978
3371 5917 873
3372 16550 892
3373 19141 823
3374 17391 59
3375 7535 779
3376 12926 305
3377 6005 520
3378 12329 958
3379 13528 38
3380 16502 410
3381 4470 470
3382 18995 48
3383 9028 909
3384 13487 703
3385 7461 148
3386 5447 884
3387 7175 569
3388 6815 463
3389 15653 326
3390 5673 87
3391 18124 310
3392 8766 228
3393 11636 902
3394 15510 539
3395 9507 210
3396 18731 86
3397 19001 509
3398 11900 959
3399 19231 183
3400 14386 395
3401 4607 678
3402 5165 309
3403 13007 888
3404 14620 616
3405 12585 260
3406 13743 528
3407 4534 703
3408 11948 620
3409 17890 662
3410 17560 381
3411 12793 880
3412 10501 11
3413 4920 598
3414 11068 835
3415 14775 297
3416 16656 523
3417 10666 37
3418 6650 752
3419 12768 46
3420 18597 860
3421 9648 728
3422 14105 470
3423 6425 796
3424 6927 377
3425 13504 70
3426 13828 385
3427 4552 998
3428 13494 70
3429 10760 423
3430 5150 520
3431 16689 158
3432 13696 171
3433 10835 215
3434 14632 935
3435 11707 774
3436 9532 295
3437 16766 780
3438 7515 868
3439 12747 20
3440 16150 569
3441 14737 747
3442 11764 55
3443 19242 543
3444 16373 364
3445 9704 297
3446 7341 275
3447 10479 197
3448 4709 21
3449 14346 298
3450 17822 4
3451 14424 648
3452 7022 720
3453 6560 492
3454 7869 292
3455 16452 276
3456 11203 243
3457 9652 690
3458 17075 999
3459 14849 223
3460 18865 440
3461 12309 996
3462 6355 809
3463 15112 879
3464 19487 456
3465 7443 345
3466 6370 905
3467 5063 294
3468 3565 315
3469 10388 842
3470 6844 150
3471 12881 499
3472 18934 503
3473 18429 925
3474 11270 391
3475 15007 253
3476 5078 106
3477 11922 174
3478 12849 312
3479 19371 136
3480 4596 967
3481 14851 590
3482 12956 374
3483 11042 535
3484 10993 13
3485 5987 539
3486 16374 624
3487 10772 231
3488 10167 784
3489 4955 409
3490 14618 906
3491 19181 679
3492 9576 373
3493 10387 71
3494 4491 966
3495 12070 931
3496 13231 666
3497 7710 587
3498 15836 677
3499 14844 517
3500 8549 166
3501 13173 669
3502 7635 471
3503 7960 886
3504 14015 67
3505 9050 232
3506 19487 888
3507 6775 71
3508 13728 870
3509 11725 698
3510 14950 727
3511 16119 887
3512 10240 311
3513 13772 674
3514 10370 241
3515 18395 751
3516 18945 300
3517 16030 910
3518 13489 195
3519 11460 272
3520 9393 319
3521 17672 674
3522 12002 238
3523 12856 276
3524 8889 79
3525 11497 953
3526 13333 897
3527 19269 880
3528 12893 826
3529 15359 981
3530 5241 541
3531 10435 265
3532 9276 39
3533 5288 87
3534 6973 752
3535 10272 703
3536 8492 675
3537 13681 134
3538 3683 464
3539 11912 384
3540 17949 606
3541 9652 929
3542 16887 631
3543 13459 981
3544 6838 54
3545 5403 79
3546 8263 417
3547 3634 552
3548 14058 569
3549 14923 239
3550 12484 746
3551 6098 774
3552 4818 322
3553 8595 430
3554 11428 906
3555 8698 515
3556 9382 978
3557 7956 767
3558 10281 543
3559 16743 340
3560 5954 961
3561 6631 429
3562 17389 94
3563 13913 592
3564 6033 522
3565 8763 872
3566 19314 680
3567 6863 620
3568 18967 872
3569 18821 203
3570 6892 856
3571 15951 252
3572 14744 710
3573 6136 38
3574 11302 276
3575 15243 757
3576 16081 190
3577 8396 115
3578 8539 530
3579 8286 820
3580 8630 706
3581 9608 574
3582 15337 69
3583 10630 231
3584 11281 665
3585 14455 489
3586 4564 767
3587 9956 922
3588 15147 714
3589 14494 977
3590 8391 924
3591 3733 45
3592 11239 961
3593 14599 27
3594 8837 254
3595 11181 633
3596 8874 686
3597 18100 897
3598 17393 292
3599 3764 115
3600 17310 199
3601 5233 36
3602 13461 670
3603 12109 921
3604 16040 142
3605 16052 428
3606 16744 507
3607 9743 78
3608 13972 392
3609 4443 213
3610 14003 420
3611 15115 902
3612 14055 422
3613 10748 564
3614 11573 444
3615 19421 633
3616 18601 886
3617 11982 470
3618 13641 915
3619 9190 201
3620 14637 283
3621 10908 791
3622 16078 821
3623 8488 176
3624 12546 137
3625 13848 403
3626 6439 793
3627 9830 192
3628 10767 290
3629 12181 772
3630 10022 959
3631 17360 178
3632 14125 269
3633 16802 690
3634 18365 44
3635 14124 965
3636 6498 807
3637 16417 902
3638 14064 302
3639 12291 482
3640 18753 749
3641 16846 759
3642 12959 634
3643 14933 547
3644 10456 785
3645 13623 972
3646 6232 740
3647 18130 844
3648 5025 226
3649 8305 921
3650 4399 156
3651 8183 848
3652 9117 784
3653 10174 578
3654 10668 150
3655 13471 864
3656 12668 635
3657 8338 179
3658 18897 311
3659 6128 461
3660 5033 462
3661 15319 108
3662 7894 740
3663 11443 633
3664 5531 354
3665 16042 648
3666 18852 743
3667 9675 657
3668 11035 769
3669 11117 670
3670 17565 783
3671 13153 624
3672 7778 819
3673 6419 517
3674 9282 595
3675 13284 561
3676 16477 331
3677 11754 965
3678 13373 596
3679 18056 579
3680 7302 231
3681 19455 682
3682 9644 474
3683 11094 530
3684 18604 609
3685 6128 91
3686 17720 283
3687 5676 323
3688 17632 35
3689 18274 461
3690 13300 94
3691 12198 513
3692 8152 975
3693 17359 412
3694 12607 932
3695 18964 265
3696 4390 177
3697 19438 944
3698 17049 724
3699 16707 84
3700 19063 55
3701 10013 342
3702 10223 828
3703 16821 610
3704 6681 896
3705 13773 264
3706 6476 11
3707 4377 3
3708 9955 770
3709 6515 591
3710 10324 131
3711 11441 258
3712 18784 95
3713 13929 745
3714 3972 629
3715 5422 932
3716 9462 41
3717 19372 766
3718 15023 899
3719 17030 170
3720 9487 448
3721 18710 314
3722 16325 338
3723 9393 625
3724 6740 35
3725 9064 733
3726 9573 634
3727 19017 67
3728 6468 246
3729 15208 525
3730 17758 633
3731 14947 259
3732 8022 948
3733 15020 494
3734 16523 834
3735 9481 544
3736 8724 644
3737 6392 900
3738 9113 90
3739 9213 138
3740 19328 912
3741 11663 286
3742 7941 752
3743 4886 264
3744 3910 999
3745 19352 705
3746 10362 777
3747 7435 183
3748 15760 825
3749 14256 771
3750 12330 931
3751 10434 276
3752 14062 842
3753 8694 139
3754 14204 92
3755 7703 772
3756 7948 108
3757 6477 33
3758 17457 503
3759 8597 477
3760 7095 164
3761 4013 16
3762 10636 64
3763 15826 922
3764 16078 229
3765 18642 176
3766 6512 639
3767 15833 205
3768 10393 923
3769 5346 436
3770 12108 735
3771 3866 82
3772 8144 648
3773 16731 888
3774 5415 580
3775 3974 726
3776 11703 88
3777 5404 596
3778 15352 385
3779 11458 433
3780 16723 132
3781 9916 384
3782 15667 225
3783 19481 60
3784 8438 294
3785 17797 368
3786 5024 773
3787 16418 740
3788 14952 662
3789 7007 456
3790 4155 120
3791 11541 158
3792 17158 908
3793 9104 231
3794 13067 467
3795 10577 799
3796 7763 390
3797 14965 11
3798 10937 257
3799 7194 633
3800 13463 620
3801 12258 936
3802 16772 323
3803 9724 311
3804 9914 223
3805 18700 54
3806 12190 492
3807 18552 588
3808 13511 635
3809 12821 246
3810 13904 314
3811 11198 393
3812 7343 84
3813 14941 741
3814 7204 276
3815 10684 11
3816 16925 954
3817 12503 991
3818 18598 914
3819 5532 216
3820 14199 262
3821 12969 545
3822 9958 198
3823 13212 47
3824 13989 963
3825 18638 261
3826 10040 470
3827 12858 611
3828 13155 171
3829 15296 472
3830 12868 373
3831 15024 19
3832 17654 509
3833 11888 963
3834 13941 374
3835 15982 757
3836 16694 296
3837 14193 152
3838 3954 382
3839 5813 4
3840 5640 668
3841 7908 550
3842 13712 497
3843 12177 604
3844 14986 866
3845 4630 105
3846 5545 504
3847 16341 538
3848 11251 794
3849 14933 451
3850 19033 72
3851 6826 694
3852 9799 679
3853 6743 860
3854 7192 989
3855 11244 147
3856 8141 992
3857 11583 179
3858 11985 758
3859 7258 681
3860 7650 974
3861 12865 790
3862 9955 400
3863 9371 476
3864 5239 217
3865 5497 817
3866 17229 191
3867 10635 988
3868 15410 907
3869 7744 794
3870 8431 687
3871 15714 95
3872 15150 304
3873 13630 51
3874 13176 702
3875 17153 489
3876 12067 122
3877 4122 391
3878 7076 701
3879 6961 200
3880 5814 911
3881 8827 137
3882 11773 517
3883 9145 289
3884 18757 423
3885 11259 818
3886 6687 736
3887 13694 14
3888 7159 538
3889 9694 425
3890 18833 991
3891 11967 251
3892 12495 639
3893 5955 738
3894 6220 590
3895 13949 772
3896 7786 199
3897 14492 279
3898 9763 726
3899 8348 269
3900 14055 478
3901 14408 273
3902 16709 916
3903 15980 489
3904 12897 946
3905 17791 698
3906 4730 585
3907 8359 659
3908 5699 263
3909 18121 897
3910 13534 66
3911 13553 689
3912 4360 372
3913 11868 231
3914 13511 557
3915 6316 409
3916 15794 195
3917 8882 252
3918 4810 949
3919 6194 124
3920 13586 646
3921 8199 279
3922 13993 31
3923 12777 989
3924 15706 481
3925 4920 607
3926 9245 904
3927 14491 783
3928 6671 375
3929 18826 737
3930 15626 374
3931 7144 308
3932 13584 42
3933 9706 981
3934 13141 800
3935 13797 145
3936 12306 166
3937 14652 851
3938 14729 141
3939 19146 816
3940 17180 447
3941 13983 461
3942 15598 293
3943 7661 389
3944 8249 890
3945 12783 448
3946 15062 429
3947 7983 103
3948 18163 615
3949 16919 380
3950 9275 184
3951 18093 181
3952 4223 77
3953 18456 497
3954 12429 777
3955 17342 364
3956 9864 988
3957 16368 750
3958 3999 545
3959 7768 872
3960 11559 749
3961 10700 274
3962 13816 959
3963 4973 544
3964 14063 172
3965 16031 294
3966 11366 118
3967 17647 890
3968 7118 853
3969 14378 471
3970 8374 721
3971 4044 327
3972 4037 177
3973 18070 103
3974 7429 553
3975 17012 358
3976 16209 789
3977 16551 932
3978 12785 357
3979 4790 235
3980 7393 816
3981 18834 434
3982 14704 469
3983 7385 636
3984 6797 895
3985 5873 630
3986 11461 660
3987 11103 617
3988 14957 971
3989 18070 153
3990 14226 798
3991 4282 116
3992 16747 566
3993 18525 509
3994 14571 49
3995 17271 743
3996 12520 251
3997 8998 114
3998 12598 407
3999 7091 678
4000 10312 64
4001 13855 752
4002 9380 898
4003 13555 583
4004 17830 534
4005 10308 53
4006 5111 254
4007 14392 994
4008 14338 209
4009 6915 496
4010 6564 532
4011 9840 101
4012 4420 409
4013 4099 881
4014 12455 219
4015 13376 571
4016 4497 336
4017 12138 5
4018 8638 282
4019 14500 335
4020 16967 728
4021 7468 672
4022 19048 431
4023 15172 220
4024 7242 555
4025 17861 288
4026 4914 513
4027 5379 765
4028 6605 446
4029 15345 933
4030 8910 612
4031 5803 670
4032 4123 142
4033 8699 402
4034 18900 456
4035 7171 940
4036 15197 448
4037 9668 209
4038 6834 371
4039 18777 564
4040 4088 418
4041 13914 961
4042 10174 761
4043 16186 292
4044 9646 523
4045 13854 719
4046 5274 247
4047 19329 292
4048 18832 731
4049 14109 200
4050 16989 156
4051 4730 9
4052 7056 951
4053 13383 656
4054 9542 845
4055 10486 988
4056 17826 807
4057 18075 335
4058 11593 671
4059 10394 545
4060 8550 990
4061 12693 539
4062 18722 9
4063 15983 712
4064 16853 32
4065 19180 587
4066 11987 786
4067 9529 805
4068 7119 517
4069 5866 150
4070 10693 441
4071 15246 828
4072 14828 903
4073 10192 157
4074 12675 773
4075 5546 661
4076 16444 754
4077 15490 687
4078 10643 783
4079 16928 59
4080 17321 901
4081 7535 905
4082 14089 714
4083 13849 232
4084 8875 840
4085 11905 644
4086 4376 28
4087 13336 187
4088 13413 784
4089 8891 131
4090 10733 945
4091 14551 986
4092 4786 381
4093 9498 664
4094 14843 825
4095 18298 285
4096 10200 916
4097 17478 74
4098 8600 310
4099 16894 482
4100 5964 151
4101 17454 247
4102 14659 130
4103 18149 774
4104 4658 360
4105 10023 942
4106 6055 904
4107 15648 373
4108 15001 401
4109 10127 459
4110 9252 394
4111 8454 365
4112 11143 636
4113 7305 260
4114 17725 805
4115 13631 130
4116 4309 435
4117 19421 694
4118 14728 684
4119 11599 33
4120 12251 183
4121 9990 430
4122 18101 522
4123 17436 469
4124 19424 151
4125 12792 733
4126 12387 828
4127 13496 436
4128 4376 581
4129 16066 876
4130 15613 229
4131 9959 53
4132 15536 855
4133 12638 434
4134 16329 264
4135 7459 56
4136 16048 917
4137 12670 268
4138 14271 255
4139 10216 60
4140 15331 538
4141 10736 636
4142 13516 731
4143 16173 898
4144 19104 571
4145 10958 226
4146 5910 32
4147 14085 624
4148 15097 428
4149 4586 611
4150 12503 571
4151 12960 497
4152 8966 920
4153 13826 194
4154 5316 24
4155 8755 208
4156 8338 914
4157 11170 775
4158 14541 101
4159 14814 501
4160 14394 988
4161 7653 21
4162 4526 806
4163 18921 930
4164 11233 288
4165 17503 800
4166 10182 673
4167 16579 545
4168 15612 921
4169 6823 284
4170 5200 148
4171 16550 24
4172 15606 465
4173 6523 261
4174 17324 371
4175 10933 150
4176 4948 802
4177 17413 712
4178 14848 435
4179 6550 796
4180 19088 514
4181 11813 810
4182 15898 155
4183 8979 215
4184 6904 245
4185 4538 462
4186 12644 232
4187 12024 832
4188 12999 451
4189 12728 822
4190 8651 756
4191 13119 295
4192 6413 338
4193 10647 388
4194 13886 564
4195 7551 807
4196 5741 620
4197 7053 950
4198 9161 891
4199 18433 346
4200 12192 987
4201 4777 368
4202 14183 717
4203 10323 888
4204 5455 664
4205 17657 680
4206 13578 600
4207 12782 25
4208 5560 42
4209 15001 928
4210 6292 444
4211 10547 466
4212 8344 755
4213 16328 464
4214 19015 974
4215 8926 194
4216 12800 479
4217 11517 362
4218 11068 201
4219 9451 134
4220 18778 815
4221 10548 751
4222 10849 381
4223 5989 820
4224 10120 822
4225 13567 854
4226 4816 88
4227 7099 354
4228 6754 453
4229 8851 526
4230 12327 809
4231 10665 762
4232 12201 120
4233 8175 25
4234 9357 840
4235 11339 215
4236 16934 552
4237 17760 781
4238 6260 122
4239 8381 385
4240 10235 199
4241 13168 252
4242 5645 872
4243 4564 761
4244 9525 166
4245 18104 768
4246 18595 475
4247 17896 889
4248 13536 359
4249 19315 539
4250 17155 960
4251 11552 904
4252 13513 458
4253 7819 62
4254 10841 847
4255 19427 893
4256 4666 152
4257 7402 707
4258 10315 268
4259 6203 959
4260 13159 709
4261 8328 810
4262 15097 616
4263 9323 655
4264 12845 549
4265 6380 776
4266 17415 361
4267 11845 734
4268 15502 323
4269 18289 202
4270 18135 706
4271 11206 814
4272 10476 295
4273 11623 673
4274 13257 876
4275 11922 469
4276 14449 658
4277 19031 285
4278 15761 92
4279 13253 219
4280 13001 547
4281 8439 712
4282 13314 74
4283 10963 292
4284 12026 359
4285 6295 264
4286 11656 387
4287 18349 649
4288 11272 257
4289 18470 168
4290 12088 598
4291 5739 192
4292 18433 101
4293 4791 680
4294 14439 895
4295 16859 743
4296 8465 222
4297 8238 137
4298 17946 918
4299 5940 390
4300 8311 531
4301 17023 327
4302 9725 737
4303 8580 103
4304 4796 347
4305 14539 584
4306 17859 422
4307 13207 119
4308 9664 553
4309 8354 428
4310 5162 586
4311 8322 805
4312 11495 206
4313 13762 224
4314 12311 889
4315 9331 173
4316 9088 159
4317 8445 837
4318 11059 817
4319 7858 142
4320 16545 331
4321 12075 617
4322 10221 673
4323 7180 436
4324 8741 374
4325 15698 42
4326 16917 388
4327 7552 939
4328 18551 73
4329 8548 444
4330 18540 471
4331 17687 172
4332 12183 315
4333 10475 378
4334 15709 226
4335 6103 213
4336 7003 172
4337 13374 961
4338 17120 215
4339 16852 882
4340 18670 359
4341 11490 871
4342 18620 539
4343 15523 508
4344 10864 73
4345 7617 605
4346 10431 231
4347 19099 19
4348 6980 299
4349 18558 274
4350 6188 803
4351 4435 632
4352 14180 188
4353 11993 667
4354 15844 200
4355 8988 463
4356 16959 671
4357 9309 297
4358 16361 834
4359 18603 854
4360 6622 99
4361 17908 817
4362 10495 716
4363 11538 675
4364 4980 616
4365 14897 62
4366 9904 941
4367 5618 659
4368 12373 69
4369 8728 993
4370 13980 743
4371 5485 614
4372 6010 146
4373 8505 881
4374 16915 314
4375 16474 606
4376 10652 452
4377 5454 400
4378 6625 159
4379 16109 686
4380 7180 985
4381 13070 485
4382 14523 210
4383 18001 919
4384 4584 325
4385 16136 953
4386 7920 728
4387 14846 73
4388 12586 432
4389 10110 739
4390 14172 584
4391 11561 793
4392 9042 54
4393 14800 579
4394 11535 782
4395 16437 744
4396 15287 869
4397 9717 708
4398 7677 180
4399 9579 200
4400 8878 973
4401 16256 645
4402 9356 302
4403 12972 339
4404 13776 128
4405 17577 329
4406 15000 365
4407 13233 556
4408 17196 577
4409 9916 406
4410 14120 851
4411 15289 214
4412 5639 1000
4413 17417 851
4414 6079 859
4415 16260 738
4416 10319 336
4417 15334 731
4418 8378 570
4419 13819 340
4420 5337 778
4421 7117 480
4422 15978 590
4423 13819 322
4424 12434 647
4425 6999 99
4426 16258 548
4427 6803 552
4428 17003 526
4429 6123 286
4430 13110 317
4431 18448 814
4432 18351 140
4433 17391 457
4434 9937 560
4435 4853 224
4436 19386 382
4437 16693 768
4438 6850 711
4439 11910 573
4440 4789 979
4441 13335 845
4442 6599 41
4443 5462 346
4444 12645 565
4445 13005 208
4446 8678 706
4447 10724 386
4448 4597 850
4449 15750 986
4450 4687 260
4451 5575 287
4452 6660 951
4453 11323 994
4454 18899 973
4455 10924 865
4456 7684 661
4457 5680 708
4458 4632 807
4459 15556 548
4460 9510 641
4461 6221 858
4462 6583 405
4463 18690 981
4464 5330 909
4465 19037 25
4466 19239 970
4467 15024 334
4468 11129 975
4469 8008 726
4470 16290 650
4471 10274 480
4472 16451 680
4473 16233 940
4474 19143 299
4475 9290 61
4476 14368 888
4477 15880 342
4478 17784 717
4479 15275 523
4480 17822 640
4481 9196 340
4482 13705 125
4483 6664 263
4484 6783 196
4485 4559 83
4486 16126 549
4487 6633 325
4488 17642 903
4489 8064 314
4490 18926 987
4491 12104 581
4492 9252 397
4493 15332 306
4494 6555 835
4495 15923 771
4496 15419 338
4497 6451 133
4498 16303 466
4499 10275 658
4500 15797 883
4501 8531 225
4502 4842 998
4503 12073 526
4504 8691 643
4505 8035 799
4506 13754 568
4507 10941 763
4508 9727 382
4509 11164 290
4510 9359 961
4511 10127 752
4512 5023 873
4513 6306 259
4514 5914 123
4515 14448 283
4516 15747 73
4517 9842 117
4518 18080 79
4519 17598 355
4520 14983 542
4521 10921 543
4522 14842 218
4523 15959 108
4524 5966 879
4525 12651 939
4526 16291 276
4527 8611 318
4528 13307 762
4529 17081 629
4530 7075 551
4531 10814 815
4532 15800 264
4533 6648 324
4534 6909 731
4535 19310 736
4536 15109 131
4537 14463 151
4538 11288 475
4539 7307 938
4540 9250 337
4541 5982 344
4542 13786 126
4543 14344 764
4544 10519 158
4545 11808 117
4546 10913 142
4547 17291 183
4548 11386 298
4549 11232 313
4550 7903 200
4551 5390 978
4552 8151 971
4553 15866 264
4554 10325 214
4555 12462 938
4556 9925 822
4557 16085 275
4558 17854 666
4559 11199 185
4560 13023 702
4561 12910 935
4562 13956 470
4563 18055 951
4564 15903 905
4565 8675 699
4566 16123 127
4567 7244 480
4568 13671 459
4569 12713 60
4570 17896 824
4571 14232 369
4572 5687 731
4573 6251 270
4574 12284 921
4575 9745 87
4576 16962 771
4577 16909 404
4578 15059 240
4579 12677 569
4580 10037 793
4581 7756 155
4582 9829 989
4583 16471 347
4584 11200 960
4585 13538 669
4586 11023 136
4587 11721 256
4588 14352 621
4589 15485 31
4590 18075 519
4591 5227 770
4592 19117 249
4593 18505 618
4594 15177 107
4595 11697 163
4596 13448 169
4597 5954 623
4598 7944 225
4599 17712 442
4600 7220 11
4601 7133 929
4602 11733 720
4603 12879 258
4604 17746 564
4605 4931 185
4606 11599 521
4607 17341 458
4608 4981 54
4609 15536 649
4610 17761 743
4611 16472 824
4612 15937 866
4613 7168 320
4614 5538 594
4615 9613 209
4616 7070 983
4617 14152 654
4618 14378 219
4619 7833 983
4620 14526 880
4621 13554 331
4622 9973 760
4623 7122 174
4624 5416 356
4625 10036 282
4626 9289 908
4627 4734 112
4628 16971 188
4629 4749 135
4630 7477 455
4631 13620 205
4632 17030 300
4633 11505 829
4634 9896 261
4635 10212 715
4636 18648 242
4637 15001 9
4638 10251 934
4639 10999 372
4640 8410 234
4641 6461 855
4642 5643 365
4643 14833 773
4644 10745 205
4645 15659 120
4646 14380 214
4647 10288 487
4648 17225 683
4649 13907 25
4650 8514 400
4651 13947 609
4652 14774 166
4653 17882 6
4654 12001 197
4655 17219 754
4656 7433 218
4657 18128 87
4658 10682 278
4659 10690 178
4660 18145 907
4661 7932 648
4662 10228 496
4663 18533 569
4664 13962 147
4665 17649 712
4666 6544 819
4667 7516 28
4668 15233 21
4669 15971 326
4670 11358 93
4671 14144 663
4672 10427 288
4673 12383 895
4674 5757 839
4675 16091 364
4676 8127 752
4677 9694 197
4678 15248 380
4679 5635 527
4680 7545 930
4681 11588 381
4682 8486 271
4683 13250 303
4684 14088 777
4685 13068 979
4686 18753 264
4687 13664 867
4688 15969 975
4689 13976 660
4690 18549 427
4691 17632 207
4692 18157 171
4693 15549 773
4694 17345 754
4695 7730 993
4696 6887 603
4697 19155 161
4698 7310 518
4699 19127 552
4700 4736 420
4701 7935 895
4702 12934 185
4703 14514 644
4704 11378 260
4705 16516 843
4706 13868 993
4707 14841 660
4708 5451 117
4709 16979 475
4710 13466 737
4711 10843 635
4712 14776 178
4713 17449 899
4714 17503 60
4715 8393 602
4716 7371 611
4717 12565 332
4718 9333 774
4719 6508 240
4720 13555 683
4721 15964 889
4722 5296 585
4723 7427 648
4724 13910 347
4725 16854 965
4726 15132 675
4727 19380 830
4728 7129 16
4729 10036 742
4730 16040 223
4731 16456 149
4732 17727 767
4733 19130 817
4734 14979 352
4735 12055 600
4736 10614 883
4737 16935 904
4738 5848 833
4739 12810 776
4740 15732 93
4741 11568 253
4742 17871 421
4743 13520 473
4744 13032 628
4745 5921 25
4746 14684 904
4747 12785 373
4748 6067 243
4749 6856 876
4750 8540 528
4751 8911 759
4752 17657 844
4753 15400 514
4754 6420 86
4755 14035 244
4756 13335 554
4757 16476 412
4758 5818 859
4759 5281 207
4760 8909 417
4761 9715 319
4762 9873 332
4763 9208 960
4764 16752 257
4765 15687 207
4766 13546 449
4767 10170 834
4768 15321 613
4769 6044 265
4770 8475 316
4771 12327 278
4772 5486 908
4773 18927 120
4774 16075 439
4775 13495 928
4776 5116 803
4777 17731 913
4778 15793 444
4779 5852 30
4780 13115 567
4781 19248 413
4782 15935 732
4783 19434 327
4784 13513 477
4785 14210 895
4786 18174 597
4787 7775 950
4788 18436 814
4789 13783 792
4790 16910 374
4791 16746 253
4792 10746 355
4793 17410 358
4794 14331 82
4795 5644 54
4796 15232 348
4797 8391 917
4798 10667 884
4799 13927 510
4800 14875 228
4801 13874 135
4802 8856 131
4803 16617 924
4804 7519 209
4805 14605 169
4806 15608 795
4807 18891 419
4808 7259 433
4809 16952 393
4810 18592 797
4811 9357 159
4812 12141 810
4813 14843 151
4814 9319 195
4815 18570 451
4816 8730 682
4817 4896 837
4818 8631 474
4819 17511 685
4820 13577 479
4821 13250 722
4822 17885 293
4823 7114 101
4824 16199 758
4825 19070 767
4826 4988 373
4827 9344 543
4828 9728 246
4829 10101 318
4830 4973 367
4831 13573 61
4832 15981 321
4833 4934 588
4834 5542 497
4835 18428 848
4836 6305 791
4837 10429 372
4838 10394 250
4839 5420 16
4840 9280 577
4841 10813 216
4842 5832 636
4843 13193 836
4844 11590 988
4845 10955 104
4846 15201 581
4847 8001 101
4848 9694 845
4849 18153 495
4850 4985 394
4851 8401 796
4852 19256 175
4853 5332 187
4854 15758 679
4855 13481 355
4856 17866 837
4857 10903 633
4858 9779 669
4859 6541 810
4860 6263 39
4861 18276 803
4862 17784 997
4863 15181 860
4864 8179 693
4865 13854 546
4866 11764 703
4867 8109 223
4868 13039 86
4869 15367 623
4870 5651 434
4871 14007 313
4872 16569 176
4873 10140 499
4874 17082 242
4875 14688 75
4876 8982 58
4877 15576 722
4878 7796 52
4879 11369 150
4880 18887 982
4881 11320 569
4882 9624 857
4883 15322 264
4884 18166 826
4885 17629 31
4886 12987 848
4887 11398 260
4888 7487 178
4889 18662 178
4890 9742 275
4891 13515 797
4892 8515 565
4893 18511 892
4894 7068 537
4895 11839 947
4896 15069 260
4897 13533 67
4898 11582 869
4899 12540 345
4900 8131 928
4901 11025 485
4902 15035 886
4903 12256 180
4904 13254 494
4905 5256 329
4906 11991 312
4907 11866 394
4908 6369 580
4909 6184 115
4910 18221 284
4911 15766 999
4912 9096 50
4913 7851 279
4914 11306 191
4915 14187 894
4916 11466 233
4917 15419 412
4918 17526 579
4919 7928 901
4920 14884 661
4921 6901 716
4922 7568 91
4923 16738 536
4924 11935 361
4925 14903 891
4926 7579 969
4927 14410 385
4928 17600 565
4929 13421 811
4930 7765 603
4931 11164 814
4932 12307 617
4933 5384 432
4934 5791 65
4935 7468 508
4936 13260 838
4937 19002 506
4938 4965 60
4939 12567 901
4940 6266 14
4941 12582 89
4942 12800 832
4943 9067 335
4944 14316 107
4945 12895 826
4946 8819 509
4947 6918 212
4948 17826 929
4949 14292 530
4950 7330 894
4951 15380 244
4952 8020 735
4953 15187 529
4954 9366 299
4955 11211 332
4956 14916 336
4957 10431 955
4958 19075 530
4959 13848 950
4960 6192 451
4961 14504 552
4962 9530 662
4963 5942 744
4964 6967 51
4965 9157 644
4966 7864 538
4967 19121 782
4968 18733 82
4969 15907 912
4970 8152 813
4971 12069 983
4972 9760 90
4973 16954 254
4974 11420 94
4975 19009 479
4976 10099 656
4977 7354 738
4978 8319 137
4979 13723 452
4980 12766 381
4981 7526 36
4982 15797 27
4983 7750 222
4984 10838 807
4985 12349 568
4986 11097 911
4987 12493 704
4988 9083 376
4989 11402 789
4990 16695 499
4991 6998 399
4992 12859 806
4993 9794 167
4994 7077 92
4995 5668 691
4996 15690 779
4997 13254 46
4998 7125 69
4999 9003 455
5000 10124 267
5001 8827 564
5002 7217 500
5003 14369 352
5004 10818 247
5005 12989 159
5006 16964 966
5007 12171 597
5008 12814 435
5009 15817 359
5010 5014 316
5011 17547 322
5012 11293 143
5013 16237 738
5014 19341 154
5015 14930 419
5016 19082 68
5017 9917 193
5018 5856 209
5019 5042 169
5020 11899 640
5021 11427 947
5022 18297 667
5023 8449 516
5024 6964 55
5025 16837 695
5026 7948 749
5027 14993 116
5028 8321 315
5029 9258 893
5030 5106 595
5031 7511 84
5032 17435 111
5033 13799 320
5034 6151 464
5035 7353 101
5036 12873 433
5037 18598 827
5038 7642 395
5039 5856 927
5040 11864 239
5041 7444 478
5042 14987 942
5043 17375 965
5044 18354 684
5045 13957 983
5046 16629 836
5047 8306 296
5048 13216 124
5049 11105 426
5050 7244 1000
5051 13421 299
5052 14907 459
5053 16166 729
5054 16895 197
5055 9561 261
5056 5660 487
5057 9242 800
5058 17369 726
5059 7735 906
5060 16453 529
5061 5546 794
5062 15866 736
5063 5620 623
5064 11435 253
5065 9693 663
5066 9905 877
5067 11287 889
5068 12789 214
5069 16159 80
5070 7950 205
5071 17223 314
5072 17814 206
5073 18368 429
5074 10745 479
5075 14721 33
5076 11204 427
5077 17962 185
5078 13038 553
5079 12056 359
5080 15835 732
5081 17945 470
5082 12270 522
5083 18421 4
5084 11788 821
5085 5632 333
5086 10543 587
5087 13716 211
5088 7831 103
5089 13454 332
5090 12586 954
5091 13567 232
5092 10191 298
5093 14297 520
5094 10166 636
5095 16053 44
5096 10491 745
5097 13753 555
5098 13545 786
5099 14074 621
5100 6281 823
5101 12431 397
5102 7873 573
5103 17050 890
5104 13764 601
5105 18562 22
5106 14979 516
5107 17311 163
5108 10227 223
5109 7967 613
5110 6478 494
5111 19080 915
5112 19358 321
5113 19328 827
5114 18855 164
5115 15678 477
5116 11054 293
5117 13368 51
5118 12076 295
5119 12025 971
5120 5275 508
5121 14758 812
5122 8339 279
5123 15098 808
5124 9216 342
5125 16344 132
5126 8579 94
5127 9005 353
5128 18623 931
5129 15764 418
5130 8493 994
5131 11871 937
5132 8544 91
5133 16911 973
5134 19224 734
5135 8919 751
5136 5237 505
5137 17688 294
5138 16347 117
5139 10968 776
5140 9319 556
5141 10047 799
5142 10083 844
5143 10572 865
5144 16114 793
5145 16284 601
5146 19117 328
5147 5879 145
5148 5237 538
5149 10860 83
5150 5846 670
5151 16253 107
5152 13599 534
5153 13767 463
5154 11130 742
5155 15508 75
5156 19307 930
5157 16384 851
5158 10541 492
5159 18914 759
5160 9072 483
5161 12566 686
5162 15742 824
5163 17474 18
5164 11645 291
5165 18003 592
5166 13926 167
5167 5859 213
5168 7425 435
5169 19322 662
5170 12248 448
5171 8153 97
5172 13933 933
5173 12461 448
5174 14367 104
5175 7928 314
5176 5877 607
5177 13180 838
5178 11499 214
5179 15694 722
5180 11620 473
5181 10106 492
5182 10810 230
5183 8974 661
5184 5563 603
5185 14058 50
5186 17264 397
5187 11444 361
5188 12805 69
5189 5612 107
5190 12793 159
5191 8349 56
5192 18889 879
5193 18990 226
5194 15608 466
5195 19134 166
5196 13314 772
5197 13830 286
5198 11087 408
5199 18217 35
5200 5990 252
5201 12807 569
5202 8958 119
5203 11033 57
5204 8496 929
5205 13376 708
5206 10224 458
5207 7573 845
5208 5634 292
5209 14345 324
5210 18797 308
5211 18809 630
5212 6701 165
5213 16340 256
5214 13077 202
5215 6362 768
5216 5841 623
5217 11761 795
5218 15528 561
5219 15549 390
5220 7056 622
5221 13650 520
5222 18493 902
5223 13129 277
5224 12144 174
5225 17582 184
5226 17528 215
5227 14137 735
5228 5520 315
5229 16953 34
5230 13206 639
5231 12731 935
5232 13954 225
5233 17857 954
5234 13446 987
5235 7380 179
5236 6558 275
5237 8802 382
5238 7461 619
5239 16591 191
5240 10104 467
5241 10291 887
5242 5292 197
5243 11729 901
5244 15918 466
5245 11581 515
5246 6045 424
5247 5840 804
5248 16408 333
5249 17602 332
5250 17040 861
5251 10599 265
5252 18881 664
5253 18556 373
5254 17049 243
5255 11063 426
5256 15586 78
5257 8465 709
5258 18590 426
5259 12932 481
5260 13003 681
5261 15256 233
5262 15421 848
5263 6346 429
5264 6891 705
5265 11340 970
5266 7038 68
5267 18638 699
5268 17105 31
5269 13074 363
5270 8249 217
5271 16511 444
5272 17818 369
5273 15955 475
5274 14162 555
5275 9286 524
5276 15341 350
5277 17905 389
5278 13618 102
5279 13271 280
5280 12872 580
5281 12006 99
5282 18869 353
5283 18668 760
5284 12727 246
5285 11073 758
5286 12081 387
5287 10062 552
5288 5975 926
5289 5445 564
5290 19342 181
5291 15681 13
5292 7167 760
5293 7417 328
5294 6327 937
5295 18556 428
5296 14185 96
5297 9752 310
5298 18909 861
5299 15522 56
5300 13052 766
5301 10827 549
5302 15304 197
5303 13747 632
5304 8984 931
5305 12971 896
5306 9828 293
5307 5426 718
5308 9712 95
5309 10490 528
5310 14328 161
5311 10251 82
5312 12101 608
5313 7801 284
5314 12451 103
5315 10585 429
5316 13347 580
5317 19034 190
5318 13447 301
5319 8813 133
5320 11944 432
5321 17082 325
5322 17145 655
5323 15569 439
5324 15749 309
5325 13373 951
5326 18457 459
5327 15010 478
5328 15871 324
5329 7607 466
5330 6356 231
5331 17599 347
5332 12559 797
5333 8651 855
5334 11407 449
5335 19490 249
5336 12552 228
5337 11079 994
5338 12522 332
5339 19431 624
5340 7202 620
5341 11967 661
5342 11914 431
5343 9972 18
5344 12014 347
5345 5761 763
5346 8172 126
5347 6612 519
5348 11537 624
5349 14634 86
5350 8172 506
5351 7180 878
5352 14952 187
5353 19192 924
5354 9127 159
5355 5872 236
5356 17695 555
5357 8025 941
5358 7946 855
5359 11153 463
5360 18192 522
5361 12423 914
5362 13639 728
5363 6862 950
5364 11945 701
5365 14696 625
5366 9549 190
5367 16611 400
5368 19040 640
5369 8893 783
5370 18162 520
5371 15327 10
5372 15188 58
5373 16341 894
5374 15194 817
5375 11464 666
5376 5382 462
5377 8703 790
5378 14979 819
5379 13503 460
5380 17976 461
5381 16178 853
5382 16705 451
5383 6583 805
5384 17096 275
5385 11683 885
5386 14309 104
5387 10504 628
5388 7765 417
5389 12714 35
5390 14761 989
5391 7072 383
5392 5503 336
5393 8589 534
5394 12560 672
5395 14870 691
5396 10085 883
5397 8322 292
5398 17035 304
5399 5808 592
5400 13525 930
5401 14839 934
5402 7731 875
5403 10749 459
5404 15352 529
5405 16574 535
5406 15243 595
5407 10840 808
5408 9629 16
5409 15120 409
5410 16769 877
5411 17488 231
5412 6641 796
5413 14878 732
5414 12824 444
5415 10943 974
5416 17077 260
5417 15293 237
5418 13910 430
5419 5861 544
5420 15048 713
5421 7179 456
5422 6628 781
5423 12786 260
5424 5965 985
5425 14206 43
5426 13760 869
5427 11256 186
5428 5623 196
5429 9163 774
5430 10572 767
5431 18445 240
5432 6780 378
5433 17379 854
5434 12025 453
5435 9696 123
5436 10211 550
5437 15044 30
5438 11956 102
5439 5912 659
5440 6315 276
5441 7201 684
5442 14443 974
5443 7108 183
5444 17000 595
5445 11593 105
5446 5998 972
5447 10522 162
5448 14907 302
5449 18479 593
5450 7651 825
5451 10042 537
5452 5684 947
5453 12502 63
5454 13875 34
5455 15815 160
5456 15220 107
5457 17307 766
5458 11308 980
5459 7904 139
5460 16058 399
5461 7831 742
5462 18114 726
5463 9276 699
5464 15793 984
5465 14085 669
5466 7114 567
5467 14473 482
5468 8194 80
5469 17403 896
5470 8833 51
5471 11845 194
5472 13797 874
5473 6498 808
5474 7995 502
5475 6048 384
5476 8508 3
5477 17294 591
5478 15617 221
5479 12313 99
5480 8936 413
5481 7999 750
5482 19182 258
5483 18997 473
5484 13285 610
5485 8291 910
5486 12426 263
5487 17586 963
5488 11227 685
5489 18341 107
5490 13144 820
5491 6935 805
5492 8056 967
5493 7483 678
5494 10167 801
5495 15087 967
5496 14246 403
5497 8983 111
5498 7978 278
5499 14402 703
5500 9443 332
5501 8282 479
5502 12263 120
5503 16428 748
5504 15822 54
5505 15183 259
5506 17488 877
5507 11356 387
5508 7108 386
5509 14166 991
5510 16805 414
5511 10999 232
5512 10432 569
5513 18225 519
5514 17554 454
5515 11106 303
5516 17991 835
5517 16782 782
5518 7709 253
5519 10137 691
5520 18898 988
5521 12036 529
5522 8942 926
5523 12831 258
5524 9817 121
5525 11584 96
5526 14699 913
5527 8050 160
5528 11133 632
5529 6042 783
5530 7423 175
5531 7485 999
5532 15813 387
5533 13200 199
5534 17254 983
5535 6183 579
5536 8713 995
5537 19330 844
5538 5606 194
5539 15712 97
5540 7947 424
5541 5928 177
5542 7001 840
5543 13703 917
5544 11229 791
5545 15584 866
5546 17101 376
5547 12114 360
5548 6552 38
5549 8709 334
5550 8342 254
5551 13516 548
5552 6363 875
5553 19086 916
5554 17617 819
5555 19093 711
5556 8866 944
5557 9074 39
5558 11478 310
5559 17766 740
5560 9543 624
5561 9157 911
5562 16179 696
5563 18734 249
5564 15178 745
5565 16923 114
5566 7514 635
5567 12924 713
5568 11871 374
5569 17715 121
5570 10600 261
5571 12060 93
5572 12022 501
5573 15084 748
5574 9299 211
5575 10029 305
5576 11965 973
5577 16238 466
5578 12149 111
5579 16594 553
5580 8677 684
5581 9705 298
5582 9055 112
5583 11201 664
5584 6554 691
5585 12733 807
5586 9407 632
5587 5715 339
5588 7787 557
5589 7521 933
5590 10388 931
5591 16885 328
5592 12579 188
5593 18634 669
5594 6947 972
5595 12399 156
5596 8339 777
5597 15805 158
5598 11158 181
5599 15081 879
5600 13942 453
5601 14317 257
5602 17209 208
5603 12699 104
5604 10235 295
5605 14292 237
5606 16529 548
5607 15927 700
5608 18717 84
5609 12097 174
5610 16492 130
5611 9791 612
5612 7321 818
5613 11751 640
5614 11247 768
5615 6070 718
5616 15377 720
5617 15441 133
5618 15068 791
5619 14542 129
5620 6178 115
5621 15261 154
5622 14480 171
5623 10194 546
5624 8982 336
5625 6728 155
5626 5793 3
5627 15813 121
5628 18732 840
5629 16522 463
5630 14668 549
5631 17714 704
5632 14450 856
5633 18882 364
5634 12666 352
5635 13211 719
5636 16508 638
5637 13054 556
5638 16442 933
5639 10507 438
5640 19030 675
5641 9938 121
5642 11451 230
5643 17477 346
5644 14977 733
5645 11426 903
5646 6669 725
5647 9404 817
5648 16821 294
5649 11557 644
5650 9421 168
5651 11395 513
5652 11372 442
5653 15509 798
5654 14344 177
5655 6391 25
5656 11642 320
5657 16106 438
5658 9608 33
5659 15333 238
5660 6799 787
5661 13840 329
5662 6766 79
5663 19332 256
5664 16064 281
5665 12716 562
5666 7132 541
5667 14033 31
5668 15016 357
5669 15803 829
5670 10444 293
5671 16561 224
5672 10627 262
5673 10587 969
5674 18134 866
5675 13407 171
5676 10516 798
5677 14371 29
5678 17065 887
5679 17842 882
5680 17274 578
5681 14689 766
5682 17206 897
5683 7754 429
5684 12783 27
5685 12502 817
5686 8875 659
5687 11572 466
5688 12944 52
5689 8239 921
5690 14866 368
5691 18194 160
5692 17225 147
5693 11051 186
5694 10778 942
5695 10795 724
5696 19128 155
5697 16652 603
5698 8493 369
5699 9375 806
5700 6521 294
5701 14887 848
5702 17894 78
5703 8317 301
5704 18280 604
5705 15346 992
5706 16765 816
5707 9973 873
5708 9151 986
5709 13149 256
5710 13950 989
5711 15524 763
5712 12219 902
5713 12029 853
5714 7040 729
5715 14523 302
5716 18863 861
5717 14330 974
5718 17528 778
5719 18867 576
5720 14757 229
5721 9491 3
5722 14379 884
5723 18033 308
5724 13450 355
5725 9990 843
5726 6850 716
5727 15894 661
5728 17918 358
5729 14145 949
5730 6325 404
5731 18540 496
5732 8685 127
5733 15842 881
5734 17099 43
5735 15831 73
5736 16839 848
5737 17361 394
5738 12772 634
5739 11780 731
5740 7588 520
5741 5751 593
5742 6549 316
5743 19377 846
5744 7693 962
5745 18822 670
5746 9287 832
5747 14170 410
5748 11198 270
5749 18271 117
5750 16161 708
5751 11630 732
5752 9016 177
5753 10887 377
5754 10013 922
5755 17506 880
5756 9834 699
5757 9061 472
5758 14866 822
5759 12856 582
5760 15779 665
5761 14316 570
5762 9941 350
5763 10230 174
5764 14397 359
5765 12627 639
5766 11064 847
5767 18032 905
5768 7532 718
5769 9697 31
5770 13026 188
5771 10254 678
5772 14628 609
5773 14174 44
5774 13107 731
5775 6237 45
5776 16457 640
5777 15967 659
5778 7530 912
5779 16127 752
5780 13852 520
5781 8814 256
5782 7760 935
5783 8814 611
5784 11494 149
5785 10396 3
5786 11933 752
5787 14337 313
5788 9872 39
5789 14905 800
5790 19218 86
5791 9558 903
5792 10890 590
5793 12673 358
5794 10812 686
5795 10814 693
5796 14969 375
5797 16530 41
5798 9645 620
5799 12244 50
5800 15499 593
5801 15702 294
5802 10153 55
5803 8671 725
5804 15759 962
5805 5993 928
5806 13893 718
5807 18159 398
5808 8500 512
5809 9489 451
5810 8362 811
5811 15320 647
5812 16708 925
5813 17659 981
5814 5924 346
5815 19455 405
5816 16948 639
5817 8514 657
5818 15537 655
5819 14370 149
5820 15269 337
5821 16426 185
5822 7441 5
5823 16453 907
5824 17073 745
5825 7769 174
5826 18315 799
5827 15065 424
5828 17415 287
5829 6200 966
5830 18579 265
5831 11353 738
5832 10104 588
5833 16272 954
5834 14134 832
5835 7260 730
5836 16605 231
5837 17799 784
5838 19400 474
5839 9632 62
5840 8428 528
5841 7882 499
5842 16356 791
5843 12342 498
5844 11152 474
5845 16862 456
5846 15034 717
5847 16716 134
5848 11733 969
5849 7867 571
5850 8935 353
5851 10829 216
5852 15206 276
5853 8292 983
5854 8774 954
5855 9148 197
5856 15805 655
5857 10110 575
5858 13229 147
5859 6216 966
5860 13165 347
5861 17777 805
5862 15752 803
5863 17267 381
5864 9263 132
5865 7222 834
5866 13733 515
5867 8036 692
5868 18226 591
5869 12568 284
5870 15356 105
5871 15197 57
5872 14649 108
5873 10322 177
5874 12119 628
5875 8983 562
5876 9199 589
5877 9522 109
5878 18576 702
5879 17097 581
5880 18327 380
5881 19163 736
5882 18009 330
5883 8961 54
5884 12427 931
5885 16105 278
5886 14935 413
5887 13689 699
5888 18946 510
5889 7952 699
5890 19276 913
5891 17773 737
5892 9913 320
5893 15751 287
5894 18880 675
5895 17419 134
5896 19437 738
5897 14598 871
5898 17124 349
5899 13396 805
5900 16096 763
5901 14807 19
5902 8632 43
5903 19304 372
5904 14917 817
5905 7594 714
5906 6628 759
5907 6853 516
5908 10908 780
5909 17390 237
5910 15781 305
5911 15836 346
5912 11412 463
5913 15644 140
5914 17738 794
5915 8702 435
5916 17332 555
5917 15746 15
5918 14923 435
5919 6367 486
5920 14138 442
5921 7728 51
5922 7110 685
5923 18391 630
5924 9696 202
5925 11727 153
5926 16501 23
5927 19333 841
5928 6165 38
5929 9854 513
5930 13333 486
5931 9311 313
5932 18262 626
5933 16370 302
5934 6738 226
5935 12789 44
5936 17942 942
5937 8907 301
5938 16422 268
5939 9660 779
5940 18490 181
5941 16227 320
5942 18745 561
5943 11406 789
5944 6340 438
5945 8193 683
5946 14344 839
5947 7786 727
5948 14166 623
5949 11815 663
5950 17321 721
5951 13111 697
5952 19349 966
5953 17039 138
5954 14947 206
5955 18501 157
5956 19226 701
5957 12271 342
5958 17472 232
5959 16432 264
5960 6897 765
5961 13109 482
5962 17122 838
5963 7394 697
5964 14017 156
5965 14979 109
5966 13771 852
5967 6360 316
5968 8842 461
5969 10094 535
5970 17833 803
5971 9173 824
5972 8548 471
5973 18482 416
5974 6431 839
5975 10648 688
5976 12974 281
5977 18942 288
5978 13059 828
5979 16754 961
5980 18448 434
5981 16900 887
5982 19256 117
5983 10365 99
5984 14126 167
5985 18390 800
5986 16187 274
5987 10774 658
5988 16368 66
5989 12104 761
5990 17157 817
5991 14565 842
5992 13947 537
5993 13896 583
5994 14144 619
5995 9047 889
5996 19290 191
5997 6909 672
5998 15355 153
5999 19284 930
6000 12313 697
6001 7822 273
6002 9663 377
6003 19487 831
6004 9138 905
6005 12769 959
6006 14869 154
6007 16741 122
6008 12805 114
6009 6226 389
6010 16990 748
6011 10290 465
6012 6178 195
6013 8317 98
6014 17441 102
6015 15316 614
6016 17730 209
6017 13486 996
6018 10476 420
6019 17802 846
6020 19492 26
6021 16794 308
6022 10302 386
6023 11647 959
6024 12141 145
6025 14980 129
6026 17903 310
6027 13909 975
6028 14871 574
6029 14180 574
6030 9636 979
6031 17929 373
6032 6397 383
6033 6474 704
6034 16735 847
6035 6902 449
6036 8203 9
6037 12533 456
6038 18705 307
6039 16229 868
6040 13548 95
6041 8639 997
6042 11104 399
6043 17386 303
6044 11159 133
6045 17959 980
6046 17931 302
6047 15732 842
6048 11923 17
6049 8369 982
6050 17566 831
6051 16232 56
6052 16674 378
6053 6098 40
6054 11332 37
6055 13782 772
6056 7480 324
6057 13505 157
6058 13641 327
6059 13184 618
6060 13460 257
6061 17438 653
6062 8026 634
6063 6901 565
6064 15515 854
6065 16387 570
6066 14958 560
6067 12749 931
6068 9335 700
6069 13282 506
6070 19088 686
6071 7961 885
6072 18350 416
6073 6918 163
6074 8163 20
6075 15566 374
6076 12279 582
6077 14398 506
6078 14185 139
6079 12498 126
6080 14840 460
6081 9962 57
6082 13496 106
6083 18325 165
6084 14641 425
6085 19224 499
6086 19316 499
6087 13772 205
6088 11039 745
6089 13629 737
6090 10996 514
6091 14694 251
6092 11658 897
6093 12528 535
6094 15222 540
6095 11526 559
6096 18280 305
6097 6750 85
6098 17018 681
6099 12516 291
6100 12554 983
6101 14272 507
6102 6715 205
6103 6790 81
6104 12430 659
6105 8642 935
6106 11081 712
6107 13410 327
6108 12330 420
6109 10618 301
6110 16780 555
6111 12231 293
6112 10979 995
6113 9530 388
6114 17971 196
6115 17733 759
6116 10666 387
6117 8149 828
6118 18049 593
6119 9265 508
6120 12307 27
6121 14170 653
6122 8804 624
6123 18698 848
6124 13711 252
6125 16100 886
6126 14058 647
6127 18054 649
6128 12199 910
6129 16649 152
6130 7648 20
6131 19079 736
6132 11194 409
6133 6290 64
6134 9440 806
6135 18674 366
6136 13593 789
6137 11465 335
6138 8015 517
6139 9422 402
6140 6347 368
6141 19042 377
6142 15836 202
6143 9556 772
6144 6966 489
6145 16861 421
6146 19333 564
6147 17228 278
6148 16290 60
6149 15437 174
6150 17272 914
6151 9692 289
6152 6822 209
6153 13740 278
6154 7696 879
6155 17323 206
6156 18860 717
6157 13307 912
6158 6382 812
6159 13301 752
6160 18515 808
6161 16029 783
6162 16776 153
6163 19022 139
6164 12966 586
6165 17451 540
6166 16247 207
6167 19230 15
6168 12316 984
6169 14855 202
6170 9325 510
6171 15730 809
6172 17286 419
6173 14075 932
6174 9611 874
6175 8755 694
6176 12860 943
6177 18992 635
6178 14506 766
6179 14522 661
6180 14447 603
6181 17631 540
6182 15199 662
6183 10005 380
6184 6769 520
6185 6661 588
6186 19491 443
6187 18825 848
6188 18917 643
6189 9279 103
6190 19429 133
6191 15695 736
6192 8757 643
6193 9051 350
6194 15735 63
6195 8972 870
6196 18125 235
6197 17816 765
6198 16540 516
6199 9991 495
6200 13438 980
6201 12777 932
6202 17022 821
6203 9251 873
6204 7756 367
6205 10032 483
6206 15578 643
6207 8441 726
6208 10361 624
6209 14546 921
6210 15104 43
6211 13339 660
6212 18668 404
6213 6904 64
6214 12317 243
6215 13675 425
6216 14340 496
6217 19416 22
6218 11217 910
6219 14894 589
6220 14322 885
6221 9041 683
6222 18173 779
6223 10678 902
6224 19391 886
6225 13354 432
6226 11089 314
6227 10163 645
6228 8823 723
6229 12397 775
6230 11629 249
6231 15390 960
6232 7878 305
6233 8522 856
6234 8242 233
6235 15195 12
6236 9574 205
6237 6447 860
6238 12353 618
6239 13947 192
6240 13224 270
6241 16954 522
6242 15017 805
6243 17134 120
6244 16950 685
6245 18039 215
6246 17356 988
6247 12919 165
6248 14859 98
6249 12245 450
6250 7224 215
6251 18548 577
6252 9345 996
6253 6260 645
6254 12262 727
6255 12068 929
6256 7199 442
6257 14030 725
6258 18575 811
6259 16119 217
6260 17882 7
6261 19261 785
6262 14762 457
6263 11650 819
6264 7528 583
6265 10468 293
6266 15857 250
6267 15152 936
6268 14233 578
6269 14069 254
6270 12402 134
6271 14213 298
6272 8408 657
6273 16723 670
6274 10444 608
6275 12662 171
6276 13550 882
6277 7944 662
6278 17063 875
6279 8849 510
6280 14701 52
6281 9359 588
6282 12477 793
6283 15709 963
6284 12488 166
6285 7721 306
6286 8845 989
6287 15661 325
6288 12323 108
6289 14057 34
6290 10035 755
6291 10279 179
6292 18242 377
6293 8555 978
6294 6987 12
6295 7954 943
6296 16619 132
6297 16600 831
6298 16370 339
6299 9391 673
6300 18444 444
6301 10030 983
6302 18419 178
6303 19028 487
6304 6919 140
6305 13901 790
6306 9300 983
6307 15231 497
6308 7376 813
6309 17051 822
6310 8920 311
6311 17885 647
6312 8935 344
6313 12709 257
6314 15560 28
6315 17825 541
6316 8845 143
6317 17172 184
6318 14285 978
6319 8483 135
6320 13166 208
6321 7078 367
6322 8443 132
6323 17196 554
6324 10018 915
6325 11809 818
6326 7542 831
6327 15128 753
6328 14877 988
6329 6567 74
6330 14591 249
6331 19040 228
6332 11876 714
6333 10072 144
6334 9187 20
6335 13318 596
6336 14148 232
6337 7753 715
6338 16115 56
6339 16061 770
6340 13516 404
6341 14776 339
6342 7885 16
6343 12851 513
6344 8276 274
6345 12462 484
6346 14311 217
6347 17714 251
6348 10681 517
6349 14340 306
6350 9637 508
6351 17792 342
6352 15162 471
6353 10012 499
6354 13147 616
6355 6630 110
6356 10198 100
6357 17469 509
6358 7372 677
6359 9365 825
6360 11832 298
6361 6825 776
6362 11661 106
6363 9618 854
6364 7688 621
6365 6817 198
6366 7121 846
6367 6615 416
6368 19108 293
6369 14916 410
6370 9097 206
6371 8061 547
6372 13876 888
6373 11731 824
6374 10718 358
6375 12276 576
6376 10424 932
6377 9765 51
6378 16534 335
6379 11110 425
6380 15487 450
6381 15357 128
6382 17635 459
6383 6920 258
6384 7487 616
6385 17601 457
6386 14511 444
6387 16853 548
6388 15133 365
6389 18589 55
6390 11283 893
6391 16031 282
6392 12069 38
6393 11918 538
6394 7792 741
6395 18524 392
6396 17053 202
6397 9087 938
6398 10500 633
6399 7940 294
6400 9304 294
6401 15429 979
6402 16958 746
6403 9802 823
6404 7681 785
6405 17067 711
6406 11781 769
6407 14909 442
6408 16670 987
6409 9553 474
6410 18970 592
6411 6472 992
6412 13490 822
6413 17031 186
6414 14804 466
6415 9791 800
6416 15990 142
6417 16704 747
6418 15498 929
6419 8065 296
6420 11108 574
6421 12676 862
6422 18501 158
6423 13594 332
6424 7235 765
6425 14468 590
6426 16044 8
6427 8115 754
6428 8083 989
6429 12414 190
6430 15888 886
6431 12449 156
6432 8025 818
6433 16370 669
6434 10677 608
6435 18919 145
6436 10877 465
6437 15555 537
6438 18945 910
6439 12357 351
6440 6916 261
6441 11551 862
6442 14322 956
6443 8071 286
6444 9329 408
6445 10641 525
6446 11601 908
6447 13876 211
6448 7864 47
6449 16851 591
6450 16965 106
6451 16746 437
6452 10240 22
6453 13424 36
6454 9249 649
6455 7729 329
6456 17341 53
6457 8502 14
6458 16407 904
6459 7968 895
6460 17955 533
6461 17139 885
6462 7803 602
6463 7842 651
6464 7501 44
6465 10939 515
6466 8410 62
6467 11911 485
6468 15257 408
6469 10847 466
6470 11769 480
6471 14276 704
6472 7276 186
6473 16109 179
6474 18284 445
6475 15738 480
6476 18588 260
6477 17117 528
6478 11810 174
6479 8793 507
6480 18667 112
6481 13927 420
6482 11624 14
6483 17481 811
6484 14160 643
6485 7327 778
6486 11791 996
6487 12579 442
6488 18097 868
6489 8068 996
6490 13776 836
6491 15236 496
6492 8179 847
6493 11103 21
6494 12227 419
6495 13955 576
6496 19326 157
6497 9174 253
6498 18639 471
6499 6850 280
6500 13650 720
6501 19169 883
6502 11083 914
6503 15339 466
6504 7740 465
6505 17869 928
6506 18001 35
6507 14559 880
6508 19258 638
6509 10169 793
6510 7469 915
6511 15227 237
6512 16094 920
6513 13025 807
6514 15311 645
6515 9597 235
6516 6876 155
6517 14577 473
6518 14565 913
6519 13333 743
6520 8761 333
6521 18022 809
6522 18430 666
6523 18475 403
6524 12819 73
6525 15986 322
6526 8750 178
6527 14298 968
6528 8474 746
6529 11168 548
6530 7816 210
6531 8085 760
6532 7844 558
6533 17288 38
6534 15743 893
6535 8181 374
6536 16117 599
6537 8674 955
6538 9552 686
6539 12361 392
6540 16186 406
6541 10697 753
6542 15562 289
6543 12076 78
6544 9523 473
6545 6621 115
6546 16559 402
6547 15007 258
6548 11233 405
6549 16738 74
6550 16405 89
6551 19341 274
6552 12846 707
6553 10092 854
6554 11395 178
6555 15872 364
6556 7786 626
6557 7823 156
6558 13740 277
6559 18078 229
6560 19213 491
6561 18685 334
6562 11949 740
6563 7846 695
6564 17116 779
6565 15717 270
6566 17648 641
6567 10110 208
6568 14023 602
6569 9268 631
6570 10564 864
6571 13763 803
6572 17286 298
6573 16779 434
6574 14999 923
6575 8000 922
6576 11888 825
6577 18922 372
6578 10870 434
6579 11676 793
6580 14399 531
6581 19309 112
6582 13736 566
6583 15005 507
6584 16595 735
6585 15289 921
6586 8398 830
6587 12057 141
6588 12058 38
6589 13996 525
6590 19185 642
6591 14308 415
6592 16291 263
6593 13211 980
6594 6915 974
6595 16330 970
6596 8495 544
6597 8287 605
6598 9483 11
6599 15836 554
6600 11408 242
6601 18699 857
6602 7711 511
6603 14152 687
6604 19166 801
6605 10209 812
6606 8019 958
6607 15729 755
6608 15892 841
6609 19107 642
6610 12116 683
6611 17470 613
6612 15330 103
6613 17680 874
6614 10215 207
6615 9862 102
6616 8950 986
6617 16581 285
6618 17949 395
6619 15749 447
6620 17352 919
6621 18613 10
6622 9082 18
6623 18620 593
6624 13231 903
6625 6957 862
6626 11763 897
6627 11198 584
6628 15239 250
6629 16567 107
6630 7430 507
6631 15004 920
6632 17770 829
6633 15428 508
6634 14865 709
6635 11985 487
6636 11946 842
6637 13794 905
6638 11486 789
6639 16233 35
6640 18770 572
6641 7088 626
6642 19274 753
6643 10117 527
6644 18034 861
6645 8317 928
6646 10247 89
6647 9654 253
6648 12129 952
6649 12902 140
6650 8451 428
6651 17406 454
6652 6951 614
6653 6677 87
6654 8382 56
6655 8339 966
6656 18570 668
6657 13518 602
6658 14469 916
6659 6769 959
6660 17142 485
6661 12900 761
6662 10239 579
6663 18342 989
6664 15743 981
6665 8058 147
6666 16437 144
6667 15795 37
6668 7277 876
6669 11994 558
6670 9387 480
6671 7509 277
6672 16207 574
6673 8975 568
6674 13767 54
6675 6866 848
6676 17935 358
6677 15155 830
6678 18524 76
6679 8345 920
6680 17813 771
6681 13325 625
6682 13339 961
6683 8567 573
6684 11013 559
6685 12740 153
6686 8251 916
6687 17136 526
6688 8782 125
6689 9887 686
6690 19225 994
6691 17464 424
6692 9811 321
6693 15213 837
6694 15518 591
6695 14757 475
6696 10887 566
6697 13665 142
6698 8357 582
6699 19368 241
6700 12100 235
6701 15667 422
6702 9418 693
6703 17586 981
6704 16641 988
6705 11228 372
6706 11855 469
6707 9124 747
6708 10371 4
6709 16298 842
6710 8825 135
6711 7326 147
6712 7406 585
6713 15332 292
6714 18194 902
6715 16003 680
6716 19351 569
6717 12728 625
6718 7094 648
6719 9189 249
6720 11399 136
6721 19281 215
6722 17278 128
6723 12901 45
6724 8198 842
6725 15267 427
6726 17086 913
6727 16867 22
6728 15065 708
6729 17335 519
6730 19064 85
6731 10973 269
6732 10536 232
6733 15761 4
6734 9303 152
6735 7821 646
6736 14979 388
6737 13568 400
6738 11880 931
6739 13965 145
6740 14807 199
6741 13446 697
6742 17944 427
6743 16925 663
6744 8922 754
6745 13312 234
6746 11080 564
6747 17813 135
6748 9349 408
6749 7535 248
6750 11407 547
6751 13484 593
6752 11331 905
6753 19078 7
6754 13735 312
6755 14147 540
6756 7846 76
6757 17923 33
6758 17956 999
6759 18930 492
6760 12942 844
6761 18996 818
6762 11165 761
6763 10656 888
6764 8140 565
6765 15128 298
6766 15132 916
6767 17766 584
6768 17808 656
6769 13385 581
6770 7659 904
6771 10998 529
6772 16473 688
6773 19216 70
6774 10717 218
6775 7514 640
6776 17090 798
6777 14179 764
6778 18162 667
6779 10007 700
6780 7061 384
6781 10543 174
6782 6968 443
6783 8249 936
6784 19235 723
6785 19375 233
6786 18898 232
6787 19430 888
6788 8436 878
6789 15507 212
6790 17620 978
6791 10557 347
6792 7081 555
6793 16570 44
6794 17426 754
6795 13743 247
6796 16482 400
6797 7938 130
6798 16062 273
6799 12449 192
6800 18975 512
6801 18536 895
6802 8290 334
6803 6843 505
6804 8224 550
6805 8684 642
6806 9898 136
6807 19265 363
6808 18029 846
6809 11807 511
6810 7316 924
6811 12387 721
6812 17778 756
6813 18339 640
6814 17490 600
6815 12354 934
6816 8021 47
6817 16624 72
6818 16109 963
6819 18998 362
6820 7379 518
6821 12727 102
6822 15725 949
6823 19366 889
6824 10806 16
6825 16534 99
6826 12647 683
6827 8044 219
6828 19304 141
6829 9824 59
6830 11366 57
6831 10231 403
6832 9661 717
6833 12277 672
6834 8192 826
6835 12017 858
6836 18623 745
6837 12017 676
6838 16644 335
6839 14506 441
6840 14584 748
6841 16321 446
6842 7816 866
6843 18682 719
6844 10655 24
6845 9900 977
6846 14237 673
6847 8148 389
6848 17314 660
6849 16258 178
6850 15602 863
6851 18058 88
6852 16930 47
6853 8068 666
6854 13196 440
6855 10024 51
6856 9635 641
6857 10913 113
6858 17896 631
6859 19027 6
6860 12594 574
6861 10879 978
6862 8980 121
6863 8173 995
6864 17608 679
6865 7791 795
6866 9281 74
6867 8367 783
6868 7491 486
6869 18567 34
6870 12127 1
6871 9279 985
6872 17548 279
6873 12746 340
6874 7961 182
6875 7018 238
6876 12095 439
6877 13207 964
6878 16311 836
6879 14178 908
6880 17042 102
6881 10402 63
6882 10656 173
6883 16678 198
6884 10774 271
6885 17590 617
6886 9472 610
6887 16856 972
6888 11375 68
6889 19475 35
6890 12039 323
6891 9123 972
6892 19184 484
6893 8266 226
6894 8649 450
6895 13382 986
6896 16956 134
6897 9511 87
6898 12240 724
6899 13463 303
6900 14591 972
6901 11909 431
6902 17808 966
6903 15830 77
6904 8710 807
6905 19039 332
6906 10068 763
6907 11058 499
6908 7781 767
6909 10804 758
6910 19004 934
6911 9299 470
6912 12647 384
6913 9956 292
6914 14288 348
6915 12456 327
6916 19057 111
6917 17757 807
6918 16593 758
6919 13256 11
6920 6944 308
6921 16556 642
6922 8268 49
6923 8103 156
6924 9641 693
6925 15817 584
6926 17971 937
6927 17657 979
6928 18333 972
6929 14601 208
6930 16843 74
6931 15533 66
6932 10022 731
6933 13905 89
6934 18171 886
6935 16180 883
6936 9080 987
6937 16862 518
6938 10645 907
6939 13719 478
6940 18234 426
6941 15813 806
6942 14601 822
6943 14681 399
6944 9943 528
6945 14810 295
6946 9707 99
6947 15429 235
6948 8227 42
6949 9978 208
6950 9487 532
6951 13603 188
6952 7347 249
6953 11651 939
6954 15030 827
6955 13323 708
6956 12739 850
6957 14142 185
6958 11303 444
6959 16243 395
6960 9183 550
6961 11726 550
6962 8191 140
6963 17570 764
6964 7337 279
6965 12642 776
6966 18205 410
6967 16526 997
6968 9538 501
6969 8088 670
6970 15960 714
6971 8142 545
6972 7058 165
6973 15439 743
6974 18280 347
6975 8045 391
6976 19170 417
6977 14777 64
6978 17438 795
6979 15811 70
6980 18805 285
6981 13494 192
6982 18287 245
6983 12489 439
6984 9047 843
6985 14057 924
6986 18971 993
6987 8260 61
6988 9784 670
6989 12564 541
6990 16621 11
6991 9128 564
6992 11095 29
6993 13458 888
6994 15397 396
6995 14483 930
6996 18522 223
6997 7159 848
6998 13752 338
6999 14615 624
7000 7082 17
7001 14203 69
7002 7470 135
7003 16831 621
7004 18621 2
7005 16521 277
7006 13803 650
7007 16854 276
7008 7578 213
7009 10065 578
7010 12201 400
7011 13289 8
7012 13356 10
7013 17938 373
7014 16549 807
7015 9383 552
7016 8979 645
7017 10035 951
7018 12457 824
7019 12155 713
7020 16393 748
7021 12916 496
7022 8946 168
7023 18108 786
7024 14070 880
7025 12900 397
7026 15559 41
7027 10688 130
7028 12412 440
7029 18537 956
7030 17143 274
7031 14145 723
7032 9465 211
7033 7988 70
7034 8406 349
7035 15717 767
7036 15688 161
7037 7908 553
7038 13109 714
7039 13001 330
7040 13808 292
7041 11509 902
7042 11966 245
7043 15049 924
7044 17466 884
7045 18538 341
7046 12717 30
7047 11660 204
7048 13494 998
7049 8114 640
7050 7389 115
7051 18120 156
7052 17851 82
7053 14689 182
7054 12065 996
7055 15554 294
7056 7873 727
7057 9316 142
7058 13046 283
7059 16039 937
7060 18590 961
7061 10724 36
7062 15328 109
7063 12445 348
7064 12598 686
7065 8418 6
7066 18766 550
7067 12220 97
7068 7298 823
7069 18560 64
7070 8786 379
7071 11807 807
7072 7486 723
7073 15750 30
7074 7773 602
7075 14828 527
7076 8148 244
7077 12833 606
7078 9606 111
7079 18280 115
7080 18833 301
7081 15475 2
7082 14457 94
7083 10434 541
7084 13454 817
7085 9026 771
7086 7266 144
7087 19249 647
7088 9979 239
7089 15309 588
7090 14472 916
7091 17030 57
7092 13932 313
7093 10892 66
7094 9121 138
7095 14042 110
7096 18320 659
7097 11526 396
7098 10805 657
7099 8283 499
7100 16692 605
7101 12949 441
7102 9898 480
7103 15635 515
7104 10068 552
7105 18776 591
7106 12540 303
7107 10346 578
7108 12752 129
7109 19203 846
7110 8764 219
7111 17511 544
7112 13681 833
7113 19408 529
7114 14513 450
7115 11101 933
7116 13804 985
7117 16557 903
7118 16487 762
7119 15764 376
7120 17378 210
7121 15517 818
7122 16785 305
7123 13692 483
7124 18041 199
7125 10135 929
7126 13692 787
7127 10762 942
7128 9319 3
7129 8529 869
7130 12999 755
7131 7525 405
7132 9155 311
7133 11010 51
7134 8257 317
7135 15478 59
7136 15875 41
7137 15303 172
7138 7450 796
7139 16411 77
7140 8441 984
7141 14522 177
7142 8164 94
7143 8279 956
7144 11853 731
7145 17067 207
7146 15278 117
7147 14730 49
7148 15497 290
7149 16307 113
7150 8477 927
7151 14206 141
7152 19071 574
7153 12137 870
7154 13815 916
7155 10659 116
7156 14934 274
7157 18676 178
7158 16735 191
7159 8345 708
7160 16669 808
7161 15806 358
7162 8774 346
7163 17807 141
7164 12522 87
7165 14081 756
7166 15870 78
7167 18251 847
7168 15874 243
7169 14081 308
7170 19326 463
7171 8186 278
7172 12951 747
7173 14343 230
7174 9040 330
7175 11108 661
7176 7567 317
7177 17974 52
7178 10778 953
7179 10362 737
7180 10569 430
7181 8350 37
7182 7791 704
7183 8591 601
7184 17661 626
7185 18689 990
7186 8379 515
7187 16332 286
7188 18689 532
7189 7754 689
7190 10492 34
7191 15485 23
7192 17103 18
7193 14050 336
7194 15734 213
7195 17488 369
7196 19448 566
7197 17320 426
7198 9087 977
7199 13340 758
7200 13187 285
7201 14706 738
7202 7933 948
7203 10553 516
7204 19379 953
7205 15631 72
7206 16168 240
7207 7624 72
7208 12140 247
7209 8622 556
7210 16878 924
7211 18449 365
7212 9151 266
7213 14625 357
7214 8536 839
7215 14004 402
7216 9045 556
7217 7838 610
7218 13455 316
7219 13467 930
7220 13228 890
7221 10734 772
7222 15052 15
7223 13349 515
7224 9460 327
7225 19236 257
7226 12229 363
7227 11889 553
7228 13706 635
7229 10508 847
7230 19456 371
7231 16004 975
7232 11110 290
7233 12272 156
7234 7946 229
7235 18373 308
7236 12555 290
7237 16245 923
7238 17649 474
7239 14417 488
7240 11955 84
7241 16487 754
7242 15363 443
7243 15558 269
7244 18533 611
7245 17786 990
7246 13628 586
7247 11409 604
7248 12026 69
7249 14387 785
7250 17228 891
7251 18884 772
7252 10092 389
7253 9952 261
7254 19273 901
7255 9486 235
7256 17935 598
7257 12250 208
7258 9396 680
7259 11224 699
7260 13250 445
7261 16308 791
7262 19046 809
7263 15680 29
7264 16408 45
7265 16933 316
7266 19059 613
7267 18475 807
7268 13456 191
7269 7408 262
7270 16464 403
7271 8487 142
7272 9398 620
7273 15612 613
7274 15384 148
7275 17874 13
7276 17831 469
7277 12300 403
7278 12455 604
7279 10352 891
7280 19145 920
7281 15751 417
7282 15911 885
7283 16374 119
7284 9947 605
7285 11457 139
7286 8436 937
7287 18986 734
7288 13956 547
7289 11028 434
7290 10667 285
7291 8114 544
7292 11853 112
7293 14451 18
7294 11873 480
7295 12254 585
7296 18164 532
7297 12168 35
7298 8278 927
7299 7441 923
7300 11425 819
7301 12668 818
7302 9900 269
7303 18204 290
7304 18891 769
7305 17307 347
7306 7748 477
7307 17098 280
7308 9572 517
7309 12295 886
7310 9334 38
7311 12276 623
7312 16250 39
7313 19423 198
7314 9567 998
7315 7351 266
7316 9528 38
7317 10809 430
7318 12858 495
7319 9617 122
7320 15557 66
7321 9403 121
7322 16693 621
7323 9311 400
7324 18077 775
7325 16733 973
7326 10953 731
7327 13723 579
7328 9127 16
7329 13038 833
7330 11116 637
7331 19479 922
7332 18574 515
7333 14485 954
7334 13817 306
7335 8668 528
7336 13480 361
7337 16902 351
7338 19090 461
7339 9034 859
7340 18255 468
7341 9204 855
7342 17448 557
7343 11763 71
7344 16174 361
7345 11253 418
7346 9217 874
7347 12213 749
7348 16429 942
7349 13491 469
7350 9307 260
7351 11268 903
7352 12529 928
7353 13015 197
7354 14616 826
7355 8540 888
7356 9262 362
7357 19352 280
7358 7363 856
7359 17393 200
7360 7779 727
7361 12922 969
7362 17919 381
7363 16507 23
7364 7705 123
7365 15615 966
7366 18770 913
7367 8691 721
7368 18237 462
7369 14102 58
7370 18996 183
7371 19371 530
7372 11098 892
7373 15479 521
7374 19214 658
7375 18929 269
7376 14864 210
7377 18460 328
7378 14937 936
7379 14625 11
7380 15908 976
7381 16231 749
7382 11352 368
7383 17645 766
7384 10874 955
7385 18935 360
7386 7966 573
7387 10548 745
7388 14866 415
7389 11297 896
7390 16975 835
7391 12281 32
7392 16962 100
7393 12166 818
7394 9162 490
7395 8537 364
7396 17396 8
7397 8379 368
7398 19334 150
7399 13141 139
7400 7502 425
7401 12202 788
7402 7550 142
7403 16812 15
7404 16884 682
7405 13043 258
7406 18549 775
7407 16937 295
7408 18353 52
7409 8234 838
7410 13947 472
7411 9216 768
7412 8490 509
7413 7494 784
7414 16163 481
7415 7616 504
7416 7811 216
7417 7531 636
7418 18761 384
7419 11934 65
7420 13351 269
7421 12274 1
7422 9062 842
7423 15638 38
7424 11068 867
7425 9566 815
7426 12886 828
7427 14119 763
7428 12750 150
7429 8039 993
7430 15513 562
7431 17255 493
7432 17821 288
7433 15934 375
7434 16896 852
7435 10199 646
7436 7456 525
7437 8979 738
7438 15007 945
7439 18726 916
7440 15170 371
7441 7759 816
7442 17726 201
7443 8536 103
7444 17553 295
7445 13299 369
7446 19448 994
7447 16213 223
7448 8128 581
7449 8290 683
7450 16879 274
7451 15542 520
7452 13916 114
7453 16743 933
7454 16772 537
7455 15437 91
7456 13369 895
7457 17076 871
7458 16540 327
7459 7658 42
7460 12260 257
7461 12131 66
7462 7548 519
7463 8724 157
7464 11970 1
7465 11481 208
7466 9085 15
7467 12550 68
7468 17345 554
7469 9363 482
7470 7757 328
7471 8595 712
7472 8800 884
7473 9401 190
7474 10046 244
7475 11058 465
7476 14779 206
7477 8009 43
7478 16793 571
7479 9088 179
7480 14396 535
7481 19009 558
7482 8956 980
7483 17296 254
7484 18953 787
7485 18663 144
7486 14925 998
7487 17244 579
7488 15763 12
7489 18116 644
7490 15406 969
7491 16216 70
7492 8690 851
7493 12122 200
7494 14061 869
7495 17608 18
7496 15714 99
7497 12110 782
7498 18254 510
7499 10919 908
7500 8164 602
7501 10219 886
7502 11217 101
7503 10040 187
7504 10446 19
7505 15737 11
7506 18148 282
7507 11436 983
7508 11384 863
7509 14130 35
7510 12521 646
7511 10990 815
7512 11270 554
7513 13983 6
7514 10989 599
7515 19399 623
7516 19288 321
7517 19285 643
7518 8426 884
7519 17008 419
7520 8138 392
7521 18689 903
7522 11519 188
7523 12298 633
7524 19040 410
7525 10952 514
7526 14527 964
7527 9042 204
7528 17395 853
7529 14983 500
7530 8309 747
7531 17029 211
7532 13777 113
7533 7873 854
7534 9283 511
7535 7887 536
7536 11949 894
7537 15443 187
7538 13393 881
7539 11295 294
7540 14114 540
7541 16622 614
7542 14304 63
7543 10435 305
7544 18035 287
7545 15461 518
7546 10081 23
7547 17303 977
7548 7789 912
7549 12949 460
7550 19390 83
7551 17241 471
7552 19344 216
7553 10201 27
7554 16341 696
7555 17705 656
7556 7767 67
7557 11141 266
7558 14195 984
7559 12952 103
7560 9017 929
7561 10104 947
7562 13850 415
7563 15963 838
7564 14987 707
7565 15024 129
7566 10631 321
7567 13677 774
7568 10545 82
7569 15009 808
7570 19009 184
7571 19178 348
7572 12981 344
7573 8492 381
7574 19498 735
7575 18871 355
7576 15056 945
7577 9365 818
7578 16739 976
7579 13319 720
7580 14318 122
7581 13310 510
7582 12332 930
7583 18186 663
7584 18166 561
7585 16372 925
7586 19471 983
7587 11252 822
7588 15877 434
7589 10170 101
7590 8711 940
7591 18810 278
7592 12315 258
7593 15967 72
7594 16168 58
7595 11101 342
7596 16682 498
7597 7707 834
7598 8013 447
7599 14859 44
7600 19398 979
7601 8735 344
7602 10884 285
7603 18392 806
7604 16087 654
7605 16367 729
7606 17205 104
7607 8770 394
7608 7993 721
7609 7691 652
7610 14938 486
7611 14112 440
7612 15506 87
7613 11170 381
7614 18967 242
7615 19011 430
7616 18253 73
7617 16654 783
7618 18334 211
7619 17563 103
7620 12064 695
7621 11884 351
7622 14594 445
7623 11715 838
7624 14501 311
7625 15509 390
7626 11042 121
7627 9621 433
7628 7722 661
7629 17732 904
7630 10359 26
7631 9087 27
7632 10991 908
7633 8899 461
7634 8156 254
7635 14312 133
7636 13160 550
7637 8680 1000
7638 15139 712
7639 8307 738
7640 13795 489
7641 18492 801
7642 18330 643
7643 16313 218
7644 12948 382
7645 14097 964
7646 11260 898
7647 10442 840
7648 15091 270
7649 12137 449
7650 11893 953
7651 13025 155
7652 15098 739
7653 13567 27
7654 18891 178
7655 14445 101
7656 15511 287
7657 17535 92
7658 14755 675
7659 17024 523
7660 9933 719
7661 11681 785
7662 8844 884
7663 17468 244
7664 8412 906
7665 14984 455
7666 8218 589
7667 13228 419
7668 18134 101
7669 16500 886
7670 10224 983
7671 12679 166
7672 11617 904
7673 11165 46
7674 11046 481
7675 12120 42
7676 14501 320
7677 14725 937
7678 15382 690
7679 13067 473
7680 9366 93
7681 19069 603
7682 13708 178
7683 8224 933
7684 16843 357
7685 18094 845
7686 9961 467
7687 7743 636
7688 18381 998
7689 10961 204
7690 14759 433
7691 9741 524
7692 11479 421
7693 13763 542
7694 17255 102
7695 13262 515
7696 13093 333
7697 10737 673
7698 11209 302
7699 14853 511
7700 8580 396
7701 14492 733
7702 19392 565
7703 9882 183
7704 17728 8
7705 12440 552
7706 11759 541
7707 18583 403
7708 14766 304
7709 15195 115
7710 7986 732
7711 12318 966
7712 17046 814
7713 11364 186
7714 19006 60
7715 8434 871
7716 16352 206
7717 11990 727
7718 10002 489
7719 8472 733
7720 14051 831
7721 8447 367
7722 8988 933
7723 16916 314
7724 7822 288
7725 13326 910
7726 11640 622
7727 12792 767
7728 15541 276
7729 13406 315
7730 9995 835
7731 17673 939
7732 15123 532
7733 15771 320
7734 11296 645
7735 9140 674
7736 11213 518
7737 18349 782
7738 10476 974
7739 13322 810
7740 7865 413
7741 17712 746
7742 15762 283
7743 8139 310
7744 9478 972
7745 10484 957
7746 18349 723
7747 9694 413
7748 8266 7
7749 12351 605
7750 11118 695
7751 13945 879
7752 17323 784
7753 14834 488
7754 18283 576
7755 12116 340
7756 10359 761
7757 19165 863
7758 17029 134
7759 10421 57
7760 15676 760
7761 13368 599
7762 16458 18
7763 8530 586
7764 12883 242
7765 18831 188
7766 18373 947
7767 11426 382
7768 13802 121
7769 10993 24
7770 17844 563
7771 17574 850
7772 15904 988
7773 16388 221
7774 16859 52
7775 11934 719
7776 16688 275
7777 16863 671
7778 13293 371
7779 9164 154
7780 16349 692
7781 9942 378
7782 9194 126
7783 16774 899
7784 14074 406
7785 12786 697
7786 9976 846
7787 10778 481
7788 13059 910
7789 11478 988
7790 11358 505
7791 11420 303
7792 16987 244
7793 14052 301
7794 12022 564
7795 9434 993
7796 18738 405
7797 13345 475
7798 11013 881
7799 19305 765
7800 14703 562
7801 17150 547
7802 13018 698
7803 12269 234
7804 19273 977
7805 9073 128
7806 10647 21
7807 8696 49
7808 12378 508
7809 11955 633
7810 14424 8
7811 17062 8
7812 8582 309
7813 12611 28
7814 14467 507
7815 12603 105
7816 12448 781
7817 15000 791
7818 11636 79
7819 18249 448
7820 9466 228
7821 9215 793
7822 14538 779
7823 15837 185
7824 10063 406
7825 14329 800
7826 10506 556
7827 15638 885
7828 9308 642
7829 13722 57
7830 13907 491
7831 9876 260
7832 15156 377
7833 7920 591
7834 15066 69
7835 11990 958
7836 12123 132
7837 16524 413
7838 15634 613
7839 18516 663
7840 9526 471
7841 9635 220
7842 13371 79
7843 11573 37
7844 8144 798
7845 12796 722
7846 17416 593
7847 8885 73
7848 8026 269
7849 8160 227
7850 8909 742
7851 19383 580
7852 17045 617
7853 8952 492
7854 16751 195
7855 17312 649
7856 16398 736
7857 19337 943
7858 14587 280
7859 9074 350
7860 13931 558
7861 13274 386
7862 17404 230
7863 14463 182
7864 13074 69
7865 17646 579
7866 9209 236
7867 13731 837
7868 8027 848
7869 11320 305
7870 10315 544
7871 11984 954
7872 16734 4
7873 11773 690
7874 12754 807
7875 19048 729
7876 19321 413
7877 9979 557
7878 8176 798
7879 9910 594
7880 9881 615
7881 10496 549
7882 11820 797
7883 10195 301
7884 16500 362
7885 19413 411
7886 8103 409
7887 11591 688
7888 8969 882
7889 19275 466
7890 19114 880
7891 15071 512
7892 11193 550
7893 9374 15
7894 18966 154
7895 15479 910
7896 8859 593
7897 16576 641
7898 19124 559
7899 13023 807
7900 14472 735
7901 12654 701
7902 18367 287
7903 16737 109
7904 18197 53
7905 8951 252
7906 11336 903
7907 14705 328
7908 8266 969
7909 16503 593
7910 15560 941
7911 12803 694
7912 14304 186
7913 9176 819
7914 12135 172
7915 11750 898
7916 17825 657
7917 15076 70
7918 15258 298
7919 18623 358
7920 15298 834
7921 17272 189
7922 11743 357
7923 17493 893
7924 10257 324
7925 18994 974
7926 9538 588
7927 18388 143
7928 8636 723
7929 17924 385
7930 11866 708
7931 9257 496
7932 18633 603
7933 13224 214
7934 9956 333
7935 16541 227
7936 8709 389
7937 9544 9
7938 10499 785
7939 16491 857
7940 17302 173
7941 12570 566
7942 16934 184
7943 8163 706
7944 18951 330
7945 14268 155
7946 14581 992
7947 16165 806
7948 11480 397
7949 13851 595
7950 15808 489
7951 19321 393
7952 11622 55
7953 16746 394
7954 18448 780
7955 13771 261
7956 14157 164
7957 8473 833
7958 19166 444
7959 16351 308
7960 8580 542
7961 15602 21
7962 14730 111
7963 13045 725
7964 14069 168
7965 15367 46
7966 16095 578
7967 13867 319
7968 10346 665
7969 9059 128
7970 17909 621
7971 18869 51
7972 10993 707
7973 8959 517
7974 12876 257
7975 9167 542
7976 12767 660
7977 10804 815
7978 9709 641
7979 8829 170
7980 9564 793
7981 19043 190
7982 15452 463
7983 11988 786
7984 18014 638
7985 11458 102
7986 12777 794
7987 11613 728
7988 19103 935
7989 12997 681
7990 17928 528
7991 18129 158
7992 18072 309
7993 17371 159
7994 19215 467
7995 11605 639
7996 11020 509
7997 8926 15
7998 17926 755
7999 9311 567
8000 8486 184
8001 8966 640
8002 14518 636
8003 15557 341
8004 9259 744
8005 8519 161
8006 13521 735
8007 11379 389
8008 11821 984
8009 16756 445
8010 9803 872
8011 13934 22
8012 19373 298
8013 17728 679
8014 12932 5
8015 8355 10
8016 8882 885
8017 18659 935
8018 18766 468
8019 17241 936
8020 14326 747
8021 11089 996
8022 8368 409
8023 11116 491
8024 18676 395
8025 11315 683
8026 15246 296
8027 17491 802
8028 11002 757
8029 9285 21
8030 15545 105
8031 15034 623
8032 18663 700
8033 10804 687
8034 15739 575
8035 16384 942
8036 11122 753
8037 12857 268
8038 13549 554
8039 11538 126
8040 15695 342
8041 12971 260
8042 13307 919
8043 12610 794
8044 11598 174
8045 9322 367
8046 17961 794
8047 11412 351
8048 10760 938
8049 16881 262
8050 8091 777
8051 17107 387
8052 9273 505
8053 16086 65
8054 13721 132
8055 9995 943
8056 15503 442
8057 14051 883
8058 11167 493
8059 9560 63
8060 13889 629
8061 17383 573
8062 18106 123
8063 10813 427
8064 17472 391
8065 18345 649
8066 11840 208
8067 19363 61
8068 16889 360
8069 15568 429
8070 11138 840
8071 18450 544
8072 8888 11
8073 9895 316
8074 10039 246
8075 9428 89
8076 18740 44
8077 9397 511
8078 11704 105
8079 13376 649
8080 10788 35
8081 12859 692
8082 16429 807
8083 9652 936
8084 15991 833
8085 12864 46
8086 10846 430
8087 13527 656
8088 12767 503
8089 18343 347
8090 12979 897
8091 11489 265
8092 18205 461
8093 14398 32
8094 17680 275
8095 16788 23
8096 12279 809
8097 19440 140
8098 17093 806
8099 13390 106
8100 12639 697
8101 10833 364
8102 16411 654
8103 12866 949
8104 18787 638
8105 12751 449
8106 15322 58
8107 16150 906
8108 14284 626
8109 18996 759
8110 16220 568
8111 19276 187
8112 9980 406
8113 10455 417
8114 18933 796
8115 13225 832
8116 13672 432
8117 15007 31
8118 17801 623
8119 11407 115
8120 13985 460
8121 16949 246
8122 15878 602
8123 12336 279
8124 12721 68
8125 15473 195
8126 11763 227
8127 9875 547
8128 14685 846
8129 12548 761
8130 10456 124
8131 10082 993
8132 12575 985
8133 16337 509
8134 10500 911
8135 19359 612
8136 17781 703
8137 9558 311
8138 14794 632
8139 17354 72
8140 10985 476
8141 9221 212
8142 14303 608
8143 17401 329
8144 12989 249
8145 12389 370
8146 12674 122
8147 19314 480
8148 9267 354
8149 15007 170
8150 18560 604
8151 11851 780
8152 13604 972
8153 16934 262
8154 17957 86
8155 9868 159
8156 16730 186
8157 16851 344
8158 15605 503
8159 10483 512
8160 17992 335
8161 13131 679
8162 18601 520
8163 13806 79
8164 12683 2
8165 18394 393
8166 9172 107
8167 17373 481
8168 14642 963
8169 18335 110
8170 12175 674
8171 9584 320
8172 9610 950
8173 17982 103
8174 16570 880
8175 10245 267
8176 15455 55
8177 14715 85
8178 11250 451
8179 11133 526
8180 16801 451
8181 12990 279
8182 18172 625
8183 15401 865
8184 17480 924
8185 11583 228
8186 18403 64
8187 11847 647
8188 14411 62
8189 10361 931
8190 8941 81
8191 10990 928
8192 13589 597
8193 18827 382
8194 18307 853
8195 13717 917
8196 10363 904
8197 11399 922
8198 16825 620
8199 16674 482
8200 14387 400
8201 17879 935
8202 12742 747
8203 9114 17
8204 16527 834
8205 10530 56
8206 11047 874
8207 10102 992
8208 10196 142
8209 12583 262
8210 13659 851
8211 15872 103
8212 8569 766
8213 17416 409
8214 10683 38
8215 17747 519
8216 14790 557
8217 13205 277
8218 12426 440
8219 15089 910
8220 10201 171
8221 18298 342
8222 16652 310
8223 11874 567
8224 10365 638
8225 14868 45
8226 9429 307
8227 13398 427
8228 9536 937
8229 16698 412
8230 17992 410
8231 13935 317
8232 10039 867
8233 18715 838
8234 14255 869
8235 17651 235
8236 17825 534
8237 8488 992
8238 10173 398
8239 12504 787
8240 13771 400
8241 10520 500
8242 10180 934
8243 15148 336
8244 10708 973
8245 15478 619
8246 18920 293
8247 18875 60
8248 12678 71
8249 18705 236
8250 12584 606
8251 11546 776
8252 10952 16
8253 13644 215
8254 14309 645
8255 13511 72
8256 9010 397
8257 15988 340
8258 9757 563
8259 18014 386
8260 19007 564
8261 12579 848
8262 17689 154
8263 14215 829
8264 8936 286
8265 11368 8
8266 12498 217
8267 15753 841
8268 11644 983
8269 14824 308
8270 8310 697
8271 18537 291
8272 10742 59
8273 16083 614
8274 15367 538
8275 9731 183
8276 9029 92
8277 16205 149
8278 9660 638
8279 18426 83
8280 17925 785
8281 10219 54
8282 12946 460
8283 13524 258
8284 15103 258
8285 11700 310
8286 12897 416
8287 11987 359
8288 17874 773
8289 16538 801
8290 12875 650
8291 8572 953
8292 15746 258
8293 15347 360
8294 15482 933
8295 12439 836
8296 13609 280
8297 10939 529
8298 19263 154
8299 17322 512
8300 11953 245
8301 12077 488
8302 16814 225
8303 17172 105
8304 19439 455
8305 10508 838
8306 11787 287
8307 12281 22
8308 12937 960
8309 12407 418
8310 19189 743
8311 12978 648
8312 16420 595
8313 17826 465
8314 12396 573
8315 8946 112
8316 18202 335
8317 12420 574
8318 8515 850
8319 19469 545
8320 18102 941
8321 13839 901
8322 8662 999
8323 18979 598
8324 10556 62
8325 10881 149
8326 17173 132
8327 8829 862
8328 9231 707
8329 8780 655
8330 11724 64
8331 14091 387
8332 14970 13
8333 13561 782
8334 10758 628
8335 15215 590
8336 11062 701
8337 9276 123
8338 19206 703
8339 10789 886
8340 14107 898
8341 17395 980
8342 13476 129
8343 8829 626
8344 14129 573
8345 8950 219
8346 8437 153
8347 9190 358
8348 16053 702
8349 19453 350
8350 17220 846
8351 17651 913
8352 11219 463
8353 10832 286
8354 18777 853
8355 10927 762
8356 15974 232
8357 9058 477
8358 18209 119
8359 11135 71
8360 11224 677
8361 13703 964
8362 12397 174
8363 17353 629
8364 12389 168
8365 13649 491
8366 12923 378
8367 16619 617
8368 11122 832
8369 16498 313
8370 16506 797
8371 12491 125
8372 14749 409
8373 18371 706
8374 19094 898
8375 16045 264
8376 16060 835
8377 17873 720
8378 17056 813
8379 11735 533
8380 13262 99
8381 10052 101
8382 16615 530
8383 12147 900
8384 15345 928
8385 8982 620
8386 18532 827
8387 12463 812
8388 9568 991
8389 14035 72
8390 10212 806
8391 18740 681
8392 11946 97
8393 16987 294
8394 12221 149
8395 9264 313
8396 12300 700
8397 14405 145
8398 18159 362
8399 15597 26
8400 18892 650
8401 17029 414
8402 17888 859
8403 14984 483
8404 10587 753
8405 10569 212
8406 10559 367
8407 15258 145
8408 13062 919
8409 18617 701
8410 18714 907
8411 16344 127
8412 12261 407
8413 16799 813
8414 12799 235
8415 19204 781
8416 12175 335
8417 18630 884
8418 12116 863
8419 18885 390
8420 10141 571
8421 15543 40
8422 14101 612
8423 13146 763
8424 11899 44
8425 14437 565
8426 14697 391
8427 15721 394
8428 16644 724
8429 9654 693
8430 13713 629
8431 17047 309
8432 14251 351
8433 10214 331
8434 11321 456
8435 8958 608
8436 13210 829
8437 15484 435
8438 8683 29
8439 18428 823
8440 10318 549
8441 8498 400
8442 10025 566
8443 15573 714
8444 10568 327
8445 10099 533
8446 17603 479
8447 11551 222
8448 13002 472
8449 12532 769
8450 15999 365
8451 18999 714
8452 18597 576
8453 18836 418
8454 12834 703
8455 17701 959
8456 14966 967
8457 11219 37
8458 17118 516
8459 14141 733
8460 9587 956
8461 18980 772
8462 14666 188
8463 11568 821
8464 18542 435
8465 18254 264
8466 10622 977
8467 9344 895
8468 17996 248
8469 11154 848
8470 9805 381
8471 11139 700
8472 9100 194
8473 9297 83
8474 17789 707
8475 13181 82
8476 15962 867
8477 16694 207
8478 15494 792
8479 13368 5
8480 14053 773
8481 12062 740
8482 18360 426
8483 12616 606
8484 18391 732
8485 11598 630
8486 16129 947
8487 12406 648
8488 16136 483
8489 14668 126
8490 17677 793
8491 8616 123
8492 12963 548
8493 12400 404
8494 12811 37
8495 19154 182
8496 15901 563
8497 19086 538
8498 9588 555
8499 15351 637
8500 17727 630
8501 9002 835
8502 19011 283
8503 14431 877
8504 12358 1000
8505 9833 212
8506 11666 510
8507 17140 77
8508 12460 903
8509 9296 830
8510 17740 844
8511 10338 993
8512 8682 637
8513 17679 708
8514 9090 233
8515 14532 255
8516 18635 383
8517 14638 173
8518 11298 307
8519 10984 757
8520 11550 8
8521 14417 226
8522 12253 801
8523 18059 973
8524 11791 528
8525 15712 65
8526 18687 293
8527 10524 636
8528 13698 58
8529 14078 990
8530 18039 65
8531 15149 668
8532 13881 739
8533 11982 287
8534 9308 808
8535 16720 404
8536 14869 296
8537 11360 23
8538 19246 64
8539 11254 514
8540 9863 93
8541 16325 953
8542 10493 157
8543 12069 311
8544 15533 466
8545 15793 622
8546 13102 869
8547 10464 493
8548 14015 607
8549 12938 42
8550 15259 614
8551 10357 840
8552 17795 754
8553 16688 672
8554 11608 887
8555 12001 306
8556 10649 616
8557 11615 672
8558 8860 139
8559 13010 341
8560 13934 699
8561 9249 452
8562 15925 146
8563 17720 679
8564 18590 36
8565 14692 134
8566 13017 416
8567 16422 572
8568 16270 25
8569 13808 511
8570 8589 721
8571 15826 60
8572 16831 111
8573 13958 424
8574 12396 84
8575 14538 103
8576 10522 700
8577 18231 586
8578 10884 348
8579 16622 813
8580 15742 424
8581 11183 723
8582 9558 389
8583 13148 809
8584 13858 63
8585 17359 956
8586 10725 631
8587 13915 756
8588 10876 387
8589 11940 360
8590 9767 105
8591 14726 74
8592 9861 538
8593 14038 744
8594 10358 706
8595 9536 422
8596 18871 579
8597 9165 403
8598 17246 500
8599 15693 279
8600 13504 635
8601 18096 568
8602 9848 263
8603 15033 407
8604 16902 613
8605 11048 997
8606 10818 194
8607 13466 779
8608 15622 254
8609 12303 387
8610 8689 847
8611 10053 17
8612 12811 891
8613 17697 957
8614 9329 344
8615 14112 804
8616 14104 604
8617 16660 75
8618 18677 26
8619 19162 364
8620 9848 996
8621 15778 455
8622 18019 243
8623 17151 793
8624 16307 845
8625 18199 643
8626 12378 55
8627 14773 479
8628 13720 364
8629 19050 556
8630 18073 12
8631 11884 995
8632 12225 200
8633 9554 58
8634 17231 683
8635 15903 873
8636 9183 410
8637 15715 693
8638 11086 362
8639 9919 54
8640 10421 334
8641 17929 257
8642 18013 763
8643 13217 377
8644 16021 163
8645 16064 336
8646 17784 989
8647 9514 611
8648 19240 309
8649 13654 871
8650 16524 155
8651 13390 506
8652 15460 233
8653 11329 399
8654 11582 295
8655 10591 856
8656 8849 214
8657 16453 87
8658 8944 669
8659 10305 577
8660 10762 683
8661 16405 943
8662 14729 894
8663 9569 414
8664 18400 552
8665 15156 377
8666 11935 922
8667 18303 738
8668 15275 989
8669 9650 755
8670 10211 583
8671 13487 676
8672 15930 188
8673 14140 890
8674 15226 973
8675 19022 154
8676 12582 472
8677 10273 328
8678 8829 639
8679 14083 572
8680 16891 378
8681 11196 126
8682 9573 51
8683 17239 480
8684 19150 833
8685 12697 455
8686 16620 135
8687 9197 283
8688 15211 644
8689 11640 150
8690 8921 165
8691 14610 217
8692 17386 404
8693 12167 518
8694 11987 830
8695 13496 250
8696 15789 940
8697 9676 928
8698 11805 789
8699 17113 433
8700 17789 993
8701 16026 1
8702 10506 70
8703 18512 94
8704 13733 632
8705 10329 292
8706 11564 614
8707 10053 186
8708 15421 726
8709 18683 827
8710 16267 473
8711 17759 880
8712 9636 950
8713 16377 37
8714 14118 369
8715 11899 822
8716 11563 700
8717 15048 97
8718 13381 63
8719 19459 391
8720 17768 668
8721 18145 691
8722 14920 858
8723 13414 660
8724 10723 274
8725 14616 368
8726 16955 548
8727 11145 135
8728 14105 320
8729 14798 799
8730 12460 647
8731 13800 695
8732 17484 1000
8733 16294 408
8734 19499 842
8735 12390 971
8736 15015 247
8737 10412 2
8738 15163 714
8739 9213 682
8740 15383 757
8741 15680 616
8742 14372 547
8743 11102 218
8744 13517 442
8745 15166 878
8746 16746 454
8747 9514 95
8748 11016 830
8749 9408 959
8750 11158 297
8751 13130 885
8752 16609 181
8753 16889 871
8754 9028 582
8755 17680 815
8756 10937 650
8757 18102 184
8758 18140 68
8759 17901 890
8760 13353 627
8761 16079 344
8762 12135 138
8763 12756 900
8764 18837 555
8765 18777 269
8766 13254 628
8767 16129 325
8768 9429 573
8769 13208 799
8770 13892 75
8771 9207 292
8772 18977 907
8773 10088 373
8774 15167 279
8775 9319 894
8776 10108 805
8777 10628 412
8778 15918 958
8779 16251 174
8780 15950 201
8781 17365 713
8782 13273 918
8783 17018 68
8784 13344 33
8785 16081 763
8786 16436 832
8787 18422 468
8788 11518 677
8789 15097 648
8790 17368 91
8791 19070 648
8792 18593 603
8793 9655 36
8794 19415 181
8795 18088 653
8796 13417 522
8797 9778 30
8798 15397 992
8799 13196 106
8800 18859 133
8801 14311 414
8802 9306 322
8803 9677 510
8804 12821 847
8805 17727 276
8806 13906 522
8807 16466 503
8808 13260 725
8809 13884 964
8810 11988 202
8811 9219 446
8812 18875 317
8813 11819 2
8814 19106 955
8815 17786 580
8816 13618 313
8817 15470 362
8818 14281 807
8819 14910 330
8820 13268 88
8821 10741 312
8822 18143 731
8823 11927 325
8824 12296 564
8825 11462 541
8826 19399 606
8827 9896 260
8828 16912 180
8829 18212 374
8830 10442 699
8831 10398 834
8832 14556 162
8833 15404 249
8834 13314 677
8835 10616 603
8836 9291 41
8837 12635 300
8838 11998 1
8839 15071 633
8840 16334 121
8841 19303 443
8842 10711 966
8843 13730 973
8844 18018 546
8845 19247 452
8846 19412 558
8847 18836 488
8848 16501 746
8849 17210 128
8850 15394 496
8851 9423 202
8852 11225 663
8853 14016 757
8854 9943 128
8855 19381 131
8856 17446 154
8857 16482 186
8858 12087 234
8859 11807 8
8860 19432 832
8861 14632 505
8862 16271 413
8863 8968 544
8864 14076 486
8865 11831 599
8866 16473 401
8867 12614 918
8868 13964 43
8869 18362 755
8870 14064 512
8871 11777 850
8872 12250 364
8873 9808 737
8874 15803 438
8875 9887 285
8876 18451 690
8877 13961 869
8878 18151 264
8879 16339 493
8880 14439 400
8881 18901 919
8882 13783 925
8883 18231 651
8884 18904 791
8885 18238 844
8886 12949 123
8887 11497 989
8888 12822 276
8889 12312 730
8890 9734 260
8891 17238 678
8892 19393 127
8893 11840 611
8894 16676 464
8895 9912 114
8896 15147 292
8897 17610 457
8898 10358 833
8899 10374 736
8900 18474 900
8901 13607 230
8902 17940 459
8903 14752 504
8904 12540 426
8905 15101 567
8906 14076 392
8907 13826 244
8908 18312 788
8909 11192 348
8910 16774 901
8911 10830 826
8912 13528 400
8913 19473 981
8914 15112 163
8915 14665 442
8916 12197 411
8917 10820 865
8918 14041 435
8919 9261 448
8920 10644 951
8921 9479 29
8922 10218 72
8923 15148 720
8924 13416 545
8925 11119 152
8926 14743 773
8927 13334 740
8928 8959 58
8929 16526 987
8930 13343 21
8931 19491 75
8932 16240 471
8933 11074 800
8934 14639 554
8935 14280 460
8936 18779 125
8937 10524 999
8938 18671 100
8939 12301 769
8940 17057 952
8941 14228 203
8942 18429 284
8943 9407 234
8944 15380 13
8945 16324 479
8946 14523 800
8947 17234 470
8948 13234 63
8949 9919 420
8950 13577 262
8951 12936 96
8952 11647 824
8953 16149 609
8954 13687 555
8955 13571 204
8956 18976 234
8957 17657 707
8958 14839 510
8959 14514 690
8960 9767 234
8961 14447 768
8962 10077 837
8963 17737 836
8964 16074 61
8965 12565 320
8966 15436 238
8967 17739 81
8968 15365 963
8969 11768 171
8970 10041 163
8971 14446 342
8972 17510 63
8973 19045 586
8974 19215 693
8975 17752 563
8976 19339 110
8977 14879 914
8978 12048 648
8979 15379 340
8980 17615 108
8981 18006 921
8982 17745 585
8983 16098 350
8984 19167 407
8985 12658 345
8986 11427 215
8987 9904 74
8988 9610 525
8989 15020 234
8990 11706 129
8991 9919 528
8992 15634 604
8993 13423 69
8994 14605 475
8995 13048 76
8996 18130 508
8997 9332 495
8998 10109 204
8999 13838 378
9000 14318 279
9001 17324 437
9002 15702 372
9003 19119 271
9004 13880 639
9005 16136 445
9006 9747 739
9007 10107 122
9008 12453 20
9009 17722 483
9010 19362 339
9011 14069 284
9012 10996 86
9013 16676 614
9014 16900 612
9015 10454 94
9016 15633 613
9017 12926 742
9018 11815 185
9019 17580 182
9020 12287 579
9021 10618 776
9022 14395 897
9023 13038 832
9024 19074 204
9025 9263 156
9026 16923 773
9027 16352 285
9028 15979 273
9029 14901 342
9030 13590 275
9031 19081 127
9032 16792 704
9033 16715 78
9034 13761 638
9035 15465 731
9036 10735 481
9037 12813 708
9038 14031 886
9039 15205 54
9040 15617 942
9041 13696 133
9042 19077 498
9043 18650 750
9044 15382 312
9045 16316 148
9046 10865 326
9047 18748 830
9048 12743 639
9049 13176 755
9050 11537 6
9051 18378 999
9052 15405 597
9053 15873 975
9054 10408 146
9055 10054 988
9056 15701 656
9057 15263 795
9058 18501 558
9059 14645 957
9060 17931 300
9061 9639 123
9062 15710 721
9063 12583 377
9064 11840 43
9065 9565 75
9066 12427 77
9067 13834 518
9068 13749 180
9069 10638 868
9070 15620 691
9071 10856 384
9072 10879 155
9073 10477 179
9074 9744 343
9075 9745 407
9076 18546 430
9077 19162 677
9078 16957 914
9079 10072 909
9080 14274 363
9081 17445 885
9082 10004 816
9083 12427 866
9084 10109 378
9085 19009 683
9086 16049 373
9087 13335 672
9088 17872 907
9089 10257 203
9090 15536 177
9091 15637 358
9092 17666 868
9093 10066 64
9094 18192 329
9095 10393 442
9096 17010 806
9097 13222 91
9098 15714 980
9099 18046 220
9100 10364 883
9101 18105 890
9102 11000 665
9103 12036 797
9104 11362 595
9105 13666 945
9106 17817 756
9107 11572 450
9108 17518 599
9109 11274 670
9110 12871 339
9111 9992 25
9112 11920 134
9113 11455 719
9114 17978 819
9115 10131 377
9116 19080 139
9117 12620 248
9118 13997 733
9119 17119 232
9120 11288 103
9121 19280 196
9122 17871 411
9123 17960 167
9124 17553 627
9125 15671 974
9126 16923 690
9127 14196 967
9128 16153 300
9129 10887 414
9130 19476 939
9131 16385 387
9132 19250 541
9133 17642 715
9134 17698 873
9135 15784 757
9136 12329 454
9137 12539 542
9138 16795 914
9139 19085 321
9140 12091 211
9141 13042 636
9142 17576 1
9143 17893 266
9144 9761 783
9145 15538 61
9146 19295 761
9147 10451 416
9148 18998 683
9149 18763 928
9150 11136 113
9151 13113 567
9152 16718 174
9153 9802 627
9154 10450 749
9155 14342 463
9156 13014 810
9157 12039 233
9158 12288 746
9159 10202 525
9160 15251 531
9161 18565 591
9162 9709 628
9163 9675 759
9164 19011 914
9165 9873 433
9166 10834 658
9167 11610 13
9168 9668 592
9169 9358 122
9170 13386 512
9171 15541 286
9172 14623 126
9173 11065 483
9174 16370 789
9175 19177 615
9176 10447 935
9177 9797 630
9178 9256 663
9179 11628 57
9180 18193 304
9181 9778 838
9182 18579 48
9183 14228 910
9184 10630 56
9185 11825 571
9186 19463 607
9187 9658 722
9188 11981 7
9189 17432 302
9190 15585 504
9191 10421 306
9192 19106 18
9193 17058 938
9194 12202 730
9195 10631 947
9196 12764 552
9197 13076 251
9198 14576 155
9199 19333 425
9200 9592 437
9201 12990 266
9202 18457 256
9203 15495 231
9204 19333 40
9205 18372 921
9206 17289 384
9207 10603 454
9208 11933 620
9209 12605 587
9210 13547 200
9211 13745 583
9212 16656 982
9213 16346 647
9214 19204 732
9215 13399 563
9216 10455 304
9217 13649 794
9218 17952 66
9219 15526 171
9220 10221 935
9221 19000 15
9222 10711 826
9223 16454 631
9224 10686 676
9225 14079 217
9226 19097 89
9227 11650 593
9228 17197 340
9229 12186 293
9230 10124 456
9231 15498 617
9232 13719 686
9233 11054 951
9234 10591 144
9235 12991 708
9236 15873 417
9237 9860 235
9238 15562 600
9239 9870 710
9240 19166 809
9241 19055 841
9242 11566 445
9243 15394 969
9244 9283 695
9245 15023 807
9246 9531 713
9247 9594 832
9248 17389 251
9249 13839 462
9250 13488 208
9251 10455 569
9252 11826 465
9253 13853 847
9254 16443 560
9255 9522 153
9256 17232 131
9257 14261 655
9258 13658 19
9259 12533 28
9260 18550 287
9261 13100 85
9262 18017 151
9263 12867 683
9264 15911 349
9265 16914 297
9266 16430 771
9267 16649 601
9268 15152 496
9269 9609 606
9270 14111 920
9271 9408 302
9272 12844 520
9273 11129 751
9274 17021 360
9275 17802 425
9276 12083 92
9277 14773 966
9278 12745 490
9279 12218 614
9280 12242 999
9281 12287 194
9282 10173 427
9283 12608 771
9284 15706 593
9285 18317 506
9286 15306 920
9287 9578 553
9288 15316 192
9289 17615 924
9290 10074 372
9291 15487 519
9292 18635 55
9293 10711 301
9294 12154 9
9295 10351 389
9296 13870 871
9297 12562 596
9298 17291 326
9299 11761 151
9300 16162 269
9301 10831 747
9302 10436 780
9303 15745 947
9304 13018 856
9305 12827 645
9306 12737 256
9307 18219 439
9308 14810 352
9309 10366 602
9310 10436 631
9311 11124 658
9312 17629 682
9313 11372 564
9314 12937 592
9315 19141 293
9316 15554 450
9317 10257 605
9318 15843 639
9319 17742 344
9320 11269 184
9321 11969 322
9322 15350 841
9323 10846 552
9324 18669 206
9325 12772 547
9326 19454 760
9327 12251 159
9328 15836 6
9329 11665 461
9330 12191 77
9331 13999 936
9332 12625 79
9333 17978 388
9334 19054 146
9335 19445 441
9336 13908 248
9337 11694 421
9338 16737 837
9339 14718 532
9340 13273 867
9341 13591 951
9342 18964 185
9343 12184 66
9344 16945 159
9345 14185 446
9346 15852 973
9347 16619 4
9348 11303 659
9349 10141 712
9350 11998 523
9351 9553 598
9352 17654 44
9353 16438 363
9354 10791 605
9355 13422 121
9356 18529 676
9357 18858 41
9358 12183 942
9359 18562 73
9360 17991 186
9361 13286 205
9362 9755 419
9363 16307 266
9364 13253 42
9365 9937 555
9366 17359 488
9367 13444 457
9368 10302 600
9369 12279 341
9370 16934 965
9371 15672 108
9372 13225 737
9373 18029 16
9374 17690 658
9375 17927 409
9376 11616 304
9377 13608 301
9378 10596 116
9379 19008 361
9380 17530 947
9381 15103 813
9382 18971 650
9383 13609 788
9384 9843 504
9385 19413 987
9386 16185 991
9387 12040 212
9388 14339 88
9389 10578 308
9390 17724 542
9391 10607 357
9392 15308 972
9393 17728 377
9394 9603 489
9395 9451 165
9396 19221 518
9397 9834 562
9398 10537 407
9399 13340 453
9400 9863 858
9401 14822 136
9402 13336 998
9403 18794 37
9404 12575 929
9405 12710 65
9406 18960 404
9407 14791 764
9408 15560 892
9409 13313 491
9410 13785 884
9411 14370 407
9412 19279 989
9413 16952 793
9414 13406 246
9415 18303 484
9416 16583 944
9417 10003 390
9418 13443 392
9419 13827 428
9420 12304 909
9421 10742 520
9422 12744 132
9423 14719 239
9424 15810 759
9425 10081 900
9426 13122 510
9427 10805 96
9428 13887 61
9429 17585 397
9430 12829 377
9431 14116 820
9432 14963 374
9433 19027 745
9434 19400 283
9435 12587 660
9436 10312 717
9437 11941 661
9438 17284 1
9439 17277 704
9440 13236 82
9441 16835 956
9442 17489 688
9443 17296 801
9444 16122 118
9445 15436 236
9446 11440 762
9447 14356 556
9448 11750 184
9449 9702 550
9450 15759 507
9451 16383 780
9452 10286 760
9453 13195 330
9454 13380 91
9455 15245 513
9456 18337 85
9457 16439 175
9458 16122 521
9459 12442 801
9460 17531 56
9461 13448 128
9462 14127 954
9463 10975 852
9464 19052 846
9465 12219 48
9466 18014 698
9467 15697 568
9468 19007 199
9469 14494 465
9470 14629 66
9471 12349 107
9472 18335 801
9473 10630 531
9474 16240 656
9475 14311 662
9476 13705 726
9477 12776 591
9478 19348 457
9479 14972 789
9480 15821 602
9481 14601 609
9482 15298 263
9483 10157 744
9484 12983 655
9485 12738 259
9486 13745 178
9487 13305 108
9488 12646 359
9489 15721 385
9490 13998 882
9491 9539 916
9492 17591 152
9493 16667 845
9494 18607 77
9495 12943 799
9496 17659 456
9497 9779 620
9498 13486 243
9499 19475 206
9500 13037 452
9501 17626 789
9502 15731 278
9503 14269 124
9504 10038 942
9505 15465 364
9506 13260 429
9507 19250 343
9508 10043 810
9509 17068 377
9510 18044 475
9511 13070 610
9512 10216 274
9513 16056 121
9514 13926 316
9515 17929 880
9516 11603 455
9517 19136 629
9518 12242 39
9519 11602 544
9520 18919 518
9521 18354 436
9522 14132 548
9523 15382 325
9524 10647 989
9525 17703 650
9526 9981 281
9527 9893 432
9528 10654 839
9529 11659 648
9530 13170 295
9531 13454 29
9532 10207 60
9533 17774 498
9534 13271 631
9535 15966 713
9536 14966 467
9537 10574 290
9538 19327 327
9539 11892 247
9540 14211 898
9541 18413 442
9542 15417 822
9543 17948 150
9544 15179 656
9545 19029 430
9546 10463 154
9547 16045 858
9548 12619 234
9549 15510 409
9550 18606 835
9551 15401 685
9552 18814 291
9553 18907 737
9554 10928 674
9555 11943 95
9556 15922 490
9557 10185 191
9558 18616 358
9559 18072 471
9560 16031 972
9561 12054 925
9562 14394 379
9563 16192 352
9564 17996 521
9565 13514 9
9566 15458 108
9567 15638 813
9568 14324 896
9569 19493 47
9570 12520 480
9571 17439 375
9572 16617 625
9573 10732 600
9574 9669 489
9575 18883 969
9576 16499 247
9577 11823 725
9578 16626 288
9579 17138 338
9580 17050 68
9581 16766 857
9582 14720 764
9583 13234 287
9584 13454 376
9585 11394 91
9586 13674 495
9587 13327 921
9588 14588 153
9589 13771 680
9590 11739 69
9591 12492 912
9592 12728 986
9593 18538 984
9594 16486 714
9595 12089 874
9596 19072 666
9597 19153 884
9598 13200 147
9599 18539 792
9600 9883 634
9601 18830 602
9602 12136 565
9603 10141 425
9604 15579 537
9605 16339 932
9606 16360 798
9607 18176 299
9608 11151 781
9609 16411 428
9610 16275 930
9611 15166 430
9612 11286 604
9613 18772 155
9614 16852 956
9615 17612 467
9616 17618 14
9617 16099 133
9618 10974 107
9619 13235 272
9620 12058 321
9621 11813 171
9622 10792 345
9623 14451 49
9624 16371 925
9625 16511 986
9626 12406 414
9627 11747 964
9628 12745 746
9629 18008 358
9630 10171 153
9631 16528 782
9632 14066 489
9633 17750 663
9634 13151 339
9635 13068 24
9636 13128 197
9637 16402 977
9638 10566 811
9639 14505 528
9640 14950 108
9641 15594 756
9642 15791 672
9643 15632 634
9644 13700 346
9645 13187 49
9646 9717 634
9647 15975 277
9648 12035 823
9649 12670 278
9650 17171 576
9651 10727 621
9652 13551 966
9653 16323 17
9654 16184 343
9655 10677 595
9656 17789 970
9657 18633 885
9658 16972 852
9659 13250 48
9660 16163 891
9661 18901 662
9662 14096 91
9663 12597 76
9664 11800 23
9665 13858 477
9666 15422 62
9667 10902 220
9668 17529 256
9669 14698 243
9670 17489 996
9671 12509 716
9672 18319 108
9673 19312 953
9674 10606 932
9675 10573 99
9676 12528 640
9677 15894 829
9678 12466 122
9679 12794 909
9680 13043 496
9681 11595 358
9682 19373 491
9683 16134 355
9684 11875 393
9685 16427 37
9686 13024 654
9687 10869 766
9688 11576 311
9689 10352 473
9690 16184 513
9691 14608 324
9692 17580 458
9693 19290 246
9694 13622 698
9695 10217 428
9696 18752 322
9697 10252 636
9698 11042 388
9699 16030 682
9700 14043 670
9701 15319 790
9702 16929 39
9703 11567 420
9704 14925 309
9705 10910 867
9706 13881 579
9707 12456 718
9708 13835 149
9709 12077 17
9710 14034 925
9711 15216 268
9712 15020 111
9713 10510 232
9714 16577 971
9715 12348 557
9716 19314 78
9717 16076 900
9718 14336 628
9719 11656 1
9720 18354 479
9721 18152 765
9722 18073 27
9723 11247 591
9724 12954 832
9725 14923 371
9726 13823 705
9727 12605 409
9728 18725 867
9729 17518 474
9730 16240 118
9731 10886 162
9732 10159 357
9733 19221 773
9734 12868 413
9735 11762 412
9736 14098 161
9737 18796 897
9738 19374 587
9739 10885 237
9740 11598 811
9741 14394 267
9742 11830 752
9743 14432 212
9744 10758 266
9745 12223 9
9746 15317 952
9747 17652 476
9748 17736 699
9749 15118 787
9750 14537 322
9751 12127 581
9752 10347 372
9753 16111 30
9754 10036 245
9755 13004 787
9756 13368 86
9757 10476 185
9758 19166 252
9759 18967 367
9760 16145 763
9761 15205 240
9762 17387 392
9763 13574 407
9764 12963 744
9765 15450 230
9766 14525 171
9767 17323 209
9768 17517 936
9769 16531 72
9770 14996 492
9771 14525 494
9772 15682 445
9773 13827 347
9774 14731 524
9775 12064 223
9776 14992 648
9777 19288 399
9778 14461 645
9779 18467 874
9780 17094 813
9781 17110 874
9782 13337 213
9783 17624 954
9784 14268 50
9785 13318 300
9786 10117 390
9787 16720 219
9788 9806 398
9789 14566 52
9790 19363 394
9791 14168 961
9792 16873 368
9793 14855 986
9794 19418 44
9795 15603 710
9796 15137 912
9797 13706 893
9798 18129 449
9799 10351 34
9800 18964 689
9801 13106 713
9802 10642 941
9803 13727 392
9804 14043 286
9805 16406 587
9806 14722 15
9807 13739 578
9808 16431 616
9809 12574 320
9810 16189 25
9811 19088 910
9812 12458 639
9813 11993 354
9814 17350 187
9815 11523 231
9816 17661 953
9817 17606 916
9818 12655 935
9819 18873 213
9820 17694 147
9821 19031 772
9822 12197 114
9823 11505 995
9824 11948 643
9825 17743 858
9826 13231 149
9827 15311 379
9828 15415 392
9829 12777 415
9830 19128 671
9831 19007 155
9832 12877 307
9833 16020 66
9834 19144 295
9835 17633 220
9836 10243 999
9837 12353 67
9838 11921 448
9839 10987 535
9840 14861 364
9841 15625 652
9842 11328 902
9843 18609 366
9844 10851 911
9845 10687 400
9846 14153 506
9847 13665 691
9848 12702 852
9849 14137 132
9850 13806 829
9851 13700 949
9852 18392 251
9853 15911 829
9854 15216 48
9855 13526 531
9856 15062 722
9857 19296 771
9858 11610 292
9859 14627 605
9860 18832 864
9861 19364 208
9862 12513 344
9863 19192 451
9864 11172 3
9865 14395 119
9866 18740 868
9867 15930 746
9868 13349 595
9869 12766 564
9870 10300 469
9871 11199 335
9872 13561 286
9873 12919 812
9874 17622 567
9875 10180 29
9876 10466 777
9877 13349 857
9878 14482 539
9879 16561 135
9880 16996 661
9881 14971 359
9882 18874 565
9883 10064 805
9884 13489 944
9885 16994 295
9886 12420 560
9887 10368 675
9888 17547 311
9889 17418 766
9890 18706 401
9891 10842 18
9892 19267 206
9893 12727 93
9894 10441 683
9895 17526 421
9896 16001 565
9897 13476 136
9898 17406 407
9899 15507 603
9900 17846 136
9901 10925 509
9902 19204 20
9903 17088 228
9904 18371 525
9905 13153 597
9906 13119 100
9907 12724 367
9908 16881 160
9909 15484 514
9910 16606 129
9911 18861 188
9912 9938 28
9913 18870 283
9914 17386 397
9915 11257 16
9916 10357 782
9917 14599 431
9918 17342 911
9919 17292 332
9920 15722 944
9921 16513 998
9922 14895 859
9923 19298 671
9924 15575 341
9925 10671 762
9926 17203 679
9927 18202 225
9928 18236 755
9929 18243 59
9930 11278 9
9931 15622 656
9932 17034 993
9933 16067 471
9934 10163 96
9935 15248 658
9936 18798 59
9937 15247 359
9938 16058 154
9939 10512 618
9940 18995 809
9941 10979 821
9942 15738 823
9943 14009 198
9944 16652 294
9945 13495 266
9946 15934 51
9947 16737 348
9948 12107 54
9949 17535 408
9950 19315 801
9951 17041 91
9952 17234 688
9953 13169 822
9954 11173 761
9955 18618 21
9956 13426 327
9957 16440 546
9958 12360 928
9959 18198 557
9960 16531 852
9961 15713 42
9962 16120 443
9963 14180 159
9964 11329 651
9965 10776 221
9966 15155 625
9967 16156 325
9968 15087 898
9969 15238 942
9970 19024 987
9971 13303 330
9972 17512 850
9973 17229 365
9974 11207 14
9975 10422 542
9976 15674 278
9977 12385 6
9978 17621 536
9979 17158 327
9980 12645 460
9981 16390 7
9982 14852 102
9983 16454 604
9984 13414 822
9985 19297 696
9986 12605 948
9987 10393 260
9988 15204 156
9989 14180 429
9990 10080 31
9991 17882 110
9992 18142 47
9993 16226 466
9994 13077 376
9995 15516 705
9996 13351 832
9997 13876 738
9998 16716 583
9999 15818 859
10000 17095 798
10001 14062 64
10002 12814 75
10003 19402 725
10004 15020 68
10005 18154 424
10006 17862 893
10007 15770 912
10008 18632 491
10009 18667 960
10010 18534 894
10011 11792 750
10012 17511 505
10013 15754 75
10014 14183 961
10015 13958 869
10016 13158 165
10017 11301 492
10018 10875 653
10019 18166 929
10020 11770 738
10021 11426 672
10022 18689 930
10023 10608 121
10024 17685 749
10025 10065 790
10026 18897 847
10027 18594 683
10028 14976 464
10029 13849 776
10030 15180 947
10031 19237 431
10032 13454 116
10033 11080 669
10034 18447 253
10035 15682 111
10036 13289 94
10037 14246 869
10038 12091 176
10039 15367 226
10040 16772 642
10041 12657 450
10042 11281 213
10043 13243 90
10044 15694 435
10045 18350 367
10046 10605 728
10047 18816 720
10048 13526 549
10049 18103 605
10050 11175 53
10051 13170 681
10052 10186 261
10053 13283 987
10054 16852 782
10055 14936 608
10056 12749 353
10057 12215 978
10058 17767 112
10059 15942 572
10060 10427 238
10061 17707 47
10062 16163 834
10063 17978 873
10064 10240 609
10065 14178 475
10066 13388 495
10067 11304 560
10068 13770 433
10069 12977 770
10070 18777 780
10071 13488 215
10072 11264 905
10073 15206 662
10074 17525 38
10075 18744 39
10076 14301 206
10077 11753 960
10078 18613 301
10079 16541 751
10080 14351 568
10081 10172 198
10082 19198 778
10083 14058 387
10084 13798 924
10085 17376 828
10086 19168 318
10087 18112 851
10088 10711 289
10089 13336 382
10090 12949 216
10091 12678 352
10092 14392 534
10093 10822 949
10094 14348 577
10095 11563 675
10096 15026 586
10097 15709 871
10098 15754 61
10099 14860 164
10100 18310 65
10101 17826 926
10102 13712 393
10103 14647 114
10104 10552 941
10105 15112 233
10106 14780 998
10107 14107 175
10108 12099 175
10109 13818 759
10110 18309 69
10111 19393 363
10112 12792 870
10113 16017 393
10114 10820 976
10115 17144 404
10116 11165 264
10117 15582 573
10118 10353 814
10119 17366 310
10120 12536 923
10121 11933 962
10122 10305 633
10123 18974 920
10124 18483 983
10125 14260 900
10126 14354 146
10127 13366 688
10128 17753 389
10129 12475 857
10130 17083 989
10131 19354 733
10132 19423 506
10133 13592 543
10134 11310 134
10135 10521 369
10136 14988 958
10137 19452 789
10138 18942 724
10139 11162 634
10140 13084 125
10141 15638 720
10142 12233 351
10143 12655 542
10144 19185 575
10145 10423 968
10146 18453 344
10147 16638 221
10148 18835 114
10149 12163 140
10150 13681 557
10151 12767 992
10152 16464 744
10153 15485 998
10154 15254 792
10155 18774 834
10156 10601 937
10157 10932 567
10158 16725 657
10159 12543 801
10160 12676 912
10161 15580 777
10162 15726 902
10163 12875 845
10164 14754 435
10165 11356 522
10166 15732 397
10167 10925 556
10168 14401 316
10169 18825 794
10170 15923 307
10171 11260 937
10172 16288 580
10173 12242 171
10174 16805 853
10175 12329 823
10176 13595 304
10177 17397 596
10178 13853 388
10179 14476 368
10180 15946 750
10181 17563 577
10182 15636 705
10183 18062 937
10184 12520 364
10185 10730 406
10186 10325 772
10187 13676 172
10188 13840 573
10189 17285 8
10190 11579 435
10191 12699 1000
10192 11668 538
10193 17703 649
10194 17055 546
10195 10544 272
10196 17017 357
10197 14446 520
10198 14565 619
10199 17881 855
10200 18943 871
10201 17540 610
10202 18080 873
10203 17098 265
10204 15797 444
10205 18638 105
10206 10464 379
10207 12209 689
10208 15853 514
10209 15630 140
10210 12488 468
10211 15126 49
10212 11046 713
10213 15288 468
10214 14341 256
10215 16079 19
10216 16452 711
10217 18322 935
10218 17077 11
10219 11179 878
10220 11276 286
10221 11698 548
10222 16422 548
10223 14508 620
10224 13611 687
10225 13332 999
10226 13189 488
10227 11376 250
10228 14230 900
10229 15557 530
10230 18822 85
10231 15129 396
10232 16351 754
10233 15512 877
10234 14702 423
10235 15702 24
10236 14745 618
10237 16432 356
10238 18433 340
10239 16515 769
10240 17663 832
10241 11392 929
10242 18075 480
10243 13981 583
10244 14871 590
10245 11835 50
10246 13129 55
10247 18891 226
10248 16079 567
10249 18370 682
10250 10993 325
10251 13460 856
10252 15721 797
10253 12562 319
10254 15604 228
10255 13069 488
10256 16138 60
10257 16956 631
10258 18246 785
10259 14557 851
10260 11291 432
10261 12975 801
10262 14689 396
10263 11219 682
10264 12738 746
10265 16360 806
10266 19014 867
10267 12410 958
10268 16730 951
10269 15288 854
10270 15280 524
10271 13766 495
10272 11261 15
10273 17700 868
10274 16322 761
10275 17053 720
10276 18356 282
10277 12743 380
10278 15289 509
10279 13124 890
10280 13884 640
10281 13781 313
10282 16487 71
10283 13835 835
10284 17640 893
10285 19264 44
10286 10857 481
10287 14489 947
10288 16377 97
10289 19100 349
10290 18845 727
10291 17370 947
10292 10795 520
10293 16968 910
10294 16322 20
10295 14862 788
10296 15984 176
10297 18712 343
10298 11355 756
10299 15962 62
10300 17000 627
10301 17883 559
10302 17992 687
10303 11782 282
10304 12875 531
10305 16254 324
10306 19011 726
10307 13890 801
10308 19305 106
10309 11667 704
10310 13516 745
10311 10511 932
10312 14853 93
10313 15291 210
10314 13466 309
10315 18916 177
10316 15997 252
10317 14802 985
10318 16312 826
10319 13967 518
10320 11325 566
10321 18111 67
10322 13230 523
10323 11194 528
10324 18625 931
10325 17625 3
10326 15633 229
10327 13322 520
10328 16148 924
10329 16078 259
10330 19093 489
10331 19368 473
10332 14847 191
10333 17306 80
10334 18154 912
10335 10818 477
10336 11244 715
10337 10752 211
10338 15917 473
10339 11717 472
10340 19219 294
10341 11449 397
10342 14988 663
10343 12796 563
10344 15533 1000
10345 14341 878
10346 15158 798
10347 11455 1000
10348 15731 962
10349 17781 58
10350 14916 489
10351 16585 130
10352 11837 595
10353 13797 346
10354 12149 354
10355 13096 34
10356 16236 185
10357 16436 347
10358 18009 967
10359 14437 460
10360 12563 161
10361 18530 716
10362 18426 494
10363 13484 33
10364 14324 162
10365 17180 342
10366 16360 687
10367 17070 268
10368 14487 374
10369 19481 594
10370 12135 161
10371 16624 146
10372 16558 740
10373 15040 511
10374 19250 345
10375 12419 992
10376 18318 245
10377 18416 336
10378 13492 15
10379 17361 580
10380 13816 166
10381 11145 919
10382 14800 27
10383 10653 874
10384 14408 970
10385 15604 517
10386 17706 724
10387 13181 4
10388 12101 54
10389 11165 551
10390 16909 569
10391 17305 42
10392 13800 551
10393 18488 792
10394 12657 376
10395 13301 338
10396 18978 580
10397 10980 395
10398 10895 388
10399 12222 945
10400 18859 927
10401 12656 195
10402 15526 136
10403 14487 285
10404 16639 406
10405 11699 145
10406 16632 512
10407 13288 888
10408 10426 16
10409 15899 802
10410 13483 665
10411 15095 923
10412 13669 458
10413 15416 366
10414 16895 917
10415 12725 47
10416 11988 726
10417 11140 477
10418 13077 650
10419 14737 360
10420 18057 218
10421 10508 352
10422 16255 38
10423 14291 435
10424 14699 36
10425 17022 911
10426 19058 522
10427 18965 769
10428 11335 845
10429 11459 189
10430 11918 668
10431 16064 911
10432 13367 641
10433 19035 112
10434 15055 878
10435 15131 135
10436 11641 35
10437 17387 28
10438 14266 802
10439 11147 576
10440 10610 903
10441 12762 16
10442 15766 896
10443 18390 867
10444 12465 987
10445 10700 335
10446 18924 986
10447 16580 225
10448 14653 291
10449 13508 840
10450 14744 900
10451 15914 727
10452 15086 776
10453 18034 384
10454 16798 27
10455 18704 192
10456 11200 13
10457 17067 656
10458 11062 163
10459 13126 631
10460 11557 985
10461 16111 615
10462 14692 786
10463 13913 533
10464 17244 317
10465 15166 432
10466 18376 634
10467 12578 181
10468 19375 564
10469 13827 812
10470 14625 236
10471 16669 353
10472 16666 485
10473 11835 218
10474 17373 371
10475 18566 302
10476 17089 428
10477 15014 517
10478 15597 120
10479 13266 148
10480 16432 275
10481 15635 25
10482 12836 592
10483 16879 72
10484 16996 78
10485 12032 717
10486 10874 925
10487 15077 689
10488 13378 407
10489 16886 994
10490 16225 5
10491 10734 496
10492 13356 4
10493 12247 66
10494 14481 844
10495 10714 843
10496 18577 617
10497 16124 960
10498 13183 189
10499 18069 3
10500 18423 755
10501 12978 189
10502 15535 850
10503 16953 689
10504 13799 886
10505 18221 747
10506 13011 240
10507 13532 998
10508 14273 630
10509 13967 541
10510 11140 928
10511 11522 794
10512 15157 547
10513 12186 674
10514 18714 951
10515 18405 303
10516 15886 552
10517 11171 560
10518 13820 615
10519 12158 80
10520 16534 284
10521 18190 869
10522 14527 872
10523 16974 469
10524 12918 112
10525 18798 600
10526 11758 309
10527 17406 579
10528 14001 325
10529 18931 177
10530 18690 353
10531 16117 545
10532 12998 524
10533 16032 175
10534 11251 415
10535 14096 3
10536 19089 599
10537 13111 476
10538 12140 501
10539 19228 724
10540 11844 640
10541 17940 923
10542 18467 800
10543 17347 39
10544 17763 569
10545 13580 234
10546 16544 689
10547 16043 562
10548 11435 11
10549 18434 860
10550 18802 890
10551 11188 32
10552 18951 43
10553 16953 799
10554 10937 657
10555 16818 155
10556 13430 471
10557 18417 488
10558 18551 322
10559 18837 778
10560 10691 55
10561 13209 99
10562 11352 586
10563 17205 746
10564 13999 293
10565 19463 11
10566 16793 468
10567 12807 337
10568 13849 736
10569 18926 444
10570 16782 842
10571 14997 610
10572 15755 451
10573 13772 869
10574 11138 400
10575 18651 455
10576 14113 718
10577 19093 255
10578 18971 427
10579 10589 583
10580 15848 327
10581 17744 706
10582 14294 698
10583 19424 548
10584 18436 294
10585 16750 894
10586 16388 65
10587 15355 793
10588 14547 818
10589 10708 89
10590 14948 405
10591 16820 313
10592 11229 292
10593 17153 151
10594 16219 380
10595 14564 982
10596 12330 105
10597 12294 251
10598 19175 194
10599 13750 278
10600 18763 582
10601 18570 297
10602 14090 440
10603 15241 698
10604 16013 400
10605 10815 264
10606 11710 179
10607 15350 8
10608 18638 527
10609 13574 746
10610 15612 719
10611 11353 667
10612 15880 851
10613 11101 518
10614 13155 33
10615 19458 438
10616 16162 669
10617 12989 634
10618 13361 697
10619 13361 669
10620 14387 823
10621 17492 555
10622 13061 428
10623 13828 181
10624 14371 287
10625 12829 554
10626 13904 831
10627 11579 54
10628 11770 150
10629 16781 952
10630 13519 399
10631 12747 283
10632 13915 613
10633 18271 676
10634 18912 512
10635 13829 869
10636 14854 782
10637 14596 437
10638 18204 443
10639 17897 82
10640 14161 73
10641 12557 63
10642 10815 898
10643 12752 549
10644 14925 892
10645 14561 823
10646 13595 822
10647 16817 348
10648 12317 832
10649 10966 769
10650 16430 303
10651 11860 286
10652 13039 17
10653 11890 909
10654 16405 116
10655 15973 382
10656 16974 273
10657 15312 965
10658 19287 949
10659 10874 624
10660 17566 248
10661 18046 835
10662 16942 161
10663 14173 756
10664 17663 563
10665 16800 370
10666 12079 408
10667 15722 341
10668 10731 19
10669 14770 795
10670 16971 454
10671 14178 497
10672 15777 497
10673 18324 570
10674 13505 329
10675 11438 422
10676 17007 447
10677 12704 176
10678 18071 844
10679 16052 270
10680 14394 921
10681 15950 640
10682 16211 818
10683 14162 265
10684 16199 628
10685 16142 865
10686 19225 422
10687 14241 76
10688 17875 879
10689 17498 438
10690 11361 840
10691 18791 832
10692 11716 96
10693 10696 691
10694 13083 557
10695 18253 909
10696 13371 175
10697 10946 101
10698 17251 78
10699 10778 564
10700 16111 706
10701 18923 747
10702 14577 41
10703 16061 32
10704 19375 502
10705 18509 332
10706 17383 991
10707 19270 971
10708 14262 952
10709 15112 836
10710 14061 880
10711 11159 134
10712 19359 759
10713 17383 324
10714 12652 587
10715 11816 67
10716 14124 812
10717 13236 455
10718 17742 772
10719 15032 559
10720 14473 920
10721 15043 182
10722 17284 809
10723 14383 70
10724 11624 530
10725 15745 565
10726 11313 425
10727 16114 970
10728 13561 208
10729 12904 761
10730 15019 770
10731 15163 715
10732 16946 160
10733 14265 354
10734 11685 148
10735 16519 216
10736 13826 495
10737 19283 111
10738 18344 635
10739 10969 321
10740 18844 902
10741 17284 279
10742 10925 939
10743 18884 876
10744 12258 955
10745 18276 554
10746 16457 534
10747 12112 22
10748 14789 760
10749 15600 615
10750 12805 289
10751 12624 699
10752 14068 830
10753 12294 521
10754 14643 377
10755 13861 874
10756 16511 742
10757 14296 734
10758 11264 163
10759 10774 167
10760 11625 673
10761 14612 862
10762 17042 719
10763 12694 622
10764 15544 577
10765 13079 203
10766 16232 390
10767 12983 234
10768 11030 5
10769 16141 74
10770 12621 424
10771 11047 515
10772 16945 740
10773 18904 910
10774 16395 148
10775 12146 984
10776 15389 879
10777 13889 873
10778 11413 22
10779 12463 464
10780 18595 596
10781 13110 938
10782 13226 442
10783 17043 327
10784 18764 738
10785 12832 125
10786 13921 146
10787 12278 495
10788 16678 263
10789 18014 71
10790 17125 555
10791 12538 326
10792 12864 718
10793 19325 36
10794 14598 506
10795 12898 61
10796 13417 150
10797 13410 173
10798 14574 372
10799 14637 813
10800 16688 130
10801 18544 213
10802 12580 147
10803 11021 921
10804 12323 511
10805 15406 835
10806 17571 487
10807 12107 621
10808 17298 358
10809 16421 773
10810 11568 113
10811 17623 469
10812 18659 825
10813 14059 834
10814 14982 463
10815 14160 665
10816 14541 791
10817 11294 128
10818 19331 605
10819 17795 4
10820 13157 549
10821 15778 641
10822 13792 922
10823 16617 433
10824 11636 66
10825 18359 188
10826 18976 476
10827 16669 729
10828 12446 491
10829 11881 303
10830 13781 721
10831 16859 912
10832 14343 665
10833 12020 572
10834 17759 413
10835 11958 608
10836 14088 370
10837 11861 609
10838 18825 538
10839 11592 246
10840 17396 310
10841 15410 574
10842 18171 918
10843 16405 872
10844 17552 659
10845 13356 566
10846 16485 25
10847 16398 339
10848 11663 398
10849 13272 875
10850 13666 169
10851 15521 36
10852 13124 388
10853 15972 929
10854 19026 25
10855 14982 730
10856 18470 623
10857 15079 70
10858 17869 376
10859 14083 957
10860 13848 495
10861 17573 806
10862 11086 575
10863 12523 818
10864 18347 717
10865 15171 774
10866 10879 985
10867 12774 761
10868 19117 446
10869 17349 711
10870 12634 605
10871 14726 885
10872 15728 130
10873 15876 59
10874 17404 94
10875 15274 487
10876 17728 981
10877 12194 799
10878 14688 253
10879 11663 155
10880 12652 504
10881 18272 732
10882 16147 888
10883 14130 736
10884 14339 972
10885 18362 555
10886 12529 764
10887 12711 92
10888 18087 581
10889 14177 594
10890 11583 864
10891 14235 591
10892 18868 143
10893 15622 677
10894 17192 78
10895 13171 6
10896 18499 814
10897 12190 664
10898 19158 838
10899 13575 936
10900 17161 377
10901 17081 667
10902 19033 783
10903 13007 861
10904 18505 541
10905 16930 645
10906 18665 68
10907 19465 838
10908 18013 414
10909 16756 520
10910 14004 723
10911 12099 343
10912 15074 153
10913 12371 704
10914 11654 277
10915 18629 200
10916 10919 317
10917 11393 655
10918 15218 361
10919 13281 998
10920 14770 183
10921 11775 942
10922 17077 661
10923 13702 785
10924 16778 44
10925 12623 483
10926 13608 942
10927 16586 394
10928 14559 349
10929 15229 259
10930 17282 912
10931 15130 322
10932 18831 117
10933 18126 310
10934 12305 358
10935 18509 569
10936 19365 102
10937 15334 409
10938 11625 751
10939 12967 824
10940 11848 419
10941 16509 941
10942 18865 314
10943 12127 866
10944 16682 604
10945 16074 808
10946 15398 473
10947 16552 758
10948 17574 520
10949 16854 839
10950 17929 864
10951 18795 405
10952 14148 793
10953 17109 392
10954 11142 474
10955 14286 979
10956 17558 5
10957 15881 981
10958 16044 234
10959 11550 85
10960 12071 331
10961 17274 337
10962 13062 127
10963 11868 910
10964 14981 901
10965 13342 961
10966 14581 985
10967 18854 36
10968 16206 782
10969 17959 845
10970 13185 405
10971 13822 369
10972 14499 752
10973 16918 139
10974 16298 834
10975 14357 202
10976 17641 770
10977 14572 813
10978 13949 132
10979 19445 715
10980 13102 920
10981 13330 340
10982 14074 65
10983 15931 222
10984 11370 841
10985 17038 10
10986 19219 234
10987 17380 520
10988 19230 244
10989 16235 295
10990 13508 311
10991 18951 819
10992 11255 748
10993 13369 967
10994 16168 905
10995 13796 199
10996 14338 839
10997 17786 365
10998 11286 264
10999 11781 244
11000 14653 201
11001 13764 169
11002 13729 421
11003 11483 158
11004 15523 912
11005 11134 30
11006 18708 934
11007 17509 318
11008 11430 277
11009 15289 696
11010 17773 773
11011 14319 469
11012 11900 289
11013 14806 322
11014 19362 311
11015 13675 783
11016 19373 573
11017 17413 979
11018 12319 206
11019 11571 3
11020 13518 331
11021 14911 287
11022 15269 620
11023 13389 151
11024 13980 90
11025 14898 737
11026 17957 398
11027 15567 235
11028 12831 262
11029 13272 891
11030 14864 213
11031 11839 190
11032 17565 650
11033 18752 825
11034 11101 448
11035 11572 528
11036 15265 435
11037 16947 406
11038 19494 862
11039 13575 873
11040 16289 72
11041 15135 28
11042 15396 566
11043 16505 258
11044 17981 981
11045 14180 406
11046 13499 966
11047 12889 317
11048 12174 266
11049 15786 56
11050 11591 2
11051 11641 802
11052 15182 632
11053 16878 296
11054 12677 365
11055 17596 395
11056 16264 701
11057 11681 726
11058 19238 959
11059 12119 460
11060 12471 775
11061 18579 282
11062 13226 441
11063 17000 932
11064 19016 747
11065 18650 938
11066 15291 256
11067 18032 680
11068 12210 277
11069 15256 736
11070 16188 60
11071 12008 780
11072 12198 626
11073 15451 968
11074 14580 249
11075 17811 537
11076 14991 251
11077 14194 906
11078 17696 726
11079 19214 233
11080 11342 104
11081 17856 18
11082 13620 460
11083 12999 51
11084 18290 209
11085 12254 76
11086 13811 585
11087 13898 236
11088 11227 324
11089 15488 420
11090 15389 361
11091 15989 499
11092 15233 515
11093 12099 451
11094 16624 16
11095 12026 542
11096 12164 630
11097 11172 75
11098 12389 559
11099 17508 937
11100 14128 21
11101 17448 365
11102 16582 792
11103 18108 877
11104 11145 476
11105 18018 167
11106 11789 704
11107 13455 982
11108 11538 621
11109 12408 348
11110 11388 626
11111 15784 852
11112 18981 211
11113 18710 731
11114 18943 674
11115 17780 100
11116 17961 599
11117 17378 931
11118 17942 242
11119 13307 901
11120 14958 729
11121 14357 357
11122 17988 529
11123 12688 102
11124 11653 787
11125 14653 801
11126 14614 500
11127 18127 196
11128 11207 760
11129 19228 932
11130 18249 799
11131 15970 746
11132 12986 5
11133 11425 122
11134 12651 487
11135 12878 745
11136 12545 29
11137 13487 76
11138 17342 344
11139 18315 145
11140 16063 903
11141 18762 867
11142 14839 394
11143 18226 225
11144 18588 643
11145 15084 532
11146 13265 539
11147 14128 820
11148 19054 380
11149 18590 444
11150 15867 726
11151 19042 126
11152 15367 42
11153 13095 742
11154 19387 42
11155 14249 717
11156 18109 447
11157 15558 594
11158 15850 789
11159 14841 436
11160 12141 553
11161 14406 526
11162 17247 347
11163 19415 19
11164 15530 906
11165 19204 289
11166 19462 364
11167 15893 342
11168 13496 411
11169 16725 503
11170 18983 765
11171 17089 530
11172 17307 846
11173 15459 784
11174 18019 927
11175 14623 384
11176 12427 741
11177 13558 661
11178 15718 347
11179 17934 502
11180 11227 263
11181 13840 518
11182 11673 409
11183 18158 528
11184 19011 303
11185 18236 773
11186 15664 672
11187 17277 581
11188 15865 439
11189 12206 338
11190 14723 829
11191 12576 291
11192 19379 556
11193 11882 451
11194 18081 851
11195 16587 210
11196 15797 666
11197 16247 64
11198 17065 266
11199 14227 506
11200 17140 459
11201 18296 534
11202 17913 183
11203 19446 266
11204 15738 2
11205 13722 939
11206 14209 17
11207 19150 396
11208 13400 815
11209 15912 580
11210 11634 477
11211 18722 366
11212 14401 408
11213 17898 878
11214 18204 240
11215 18137 620
11216 12531 855
11217 13391 449
11218 18051 587
11219 16336 901
11220 13663 87
11221 15837 167
11222 12179 796
11223 13969 558
11224 12399 853
11225 19051 912
11226 13938 445
11227 17797 565
11228 13067 149
11229 16855 824
11230 19500 493
11231 19481 218
11232 19137 284
11233 13855 377
11234 14789 983
11235 12628 484
11236 12399 812
11237 12461 792
11238 17740 655
11239 18430 226
11240 15251 712
11241 14427 112
11242 15822 679
11243 13919 461
11244 17992 90
11245 12273 205
11246 12418 392
11247 19238 160
11248 14644 485
11249 12495 695
11250 18334 997
11251 11371 938
11252 16389 351
11253 14342 209
11254 17700 243
11255 14402 842
11256 16506 133
11257 18407 478
11258 11956 604
11259 16702 644
11260 15573 521
11261 13124 616
11262 18940 869
11263 12292 739
11264 14939 294
11265 11607 180
11266 11280 579
11267 15386 657
11268 15903 649
11269 15301 952
11270 17375 237
11271 17996 719
11272 13752 147
11273 17714 200
11274 17247 223
11275 13873 996
11276 11368 311
11277 13507 996
11278 13540 366
11279 16014 415
11280 12834 704
11281 17642 179
11282 18601 403
11283 18456 716
11284 13407 385
11285 12597 613
11286 17215 796
11287 11868 112
11288 12849 686
11289 15679 703
11290 17323 560
11291 17742 410
11292 13629 590
11293 14948 547
11294 17844 457
11295 11412 6
11296 17602 284
11297 17161 927
11298 15413 249
11299 14095 365
11300 15456 612
11301 18375 269
11302 18784 443
11303 18259 904
11304 12646 104
11305 16465 635
11306 12426 631
11307 17196 772
11308 12430 90
11309 16851 434
11310 14308 887
11311 17441 48
11312 15226 294
11313 11793 768
11314 15682 987
11315 18843 981
11316 13331 868
11317 13727 936
11318 12501 990
11319 18634 573
11320 16030 106
11321 11459 913
11322 13005 164
11323 17576 588
11324 12280 335
11325 11825 87
11326 13887 777
11327 14113 633
11328 16633 304
11329 18631 801
11330 13452 747
11331 11397 593
11332 16373 604
11333 19375 422
11334 11969 424
11335 18891 182
11336 16590 314
11337 15912 791
11338 19098 611
11339 17406 8
11340 18989 350
11341 13633 104
11342 17879 457
11343 14321 549
11344 14412 860
11345 13244 854
11346 11837 752
11347 16736 654
11348 15313 128
11349 11604 696
11350 15049 24
11351 13352 554
11352 14395 195
11353 11791 11
11354 11461 607
11355 17726 601
11356 11968 932
11357 16033 197
11358 15270 39
11359 17419 601
11360 16089 687
11361 17849 414
11362 13373 193
11363 13246 524
11364 12733 960
11365 11483 294
11366 16140 442
11367 17419 680
11368 13631 604
11369 13656 724
11370 17352 735
11371 14309 761
11372 11504 175
11373 13728 146
11374 17096 519
11375 12620 495
11376 14934 969
11377 13897 857
11378 16210 505
11379 19408 457
11380 13192 580
11381 11764 3
11382 12764 47
11383 15287 244
11384 13261 556
11385 11437 384
11386 19150 465
11387 15531 680
11388 14321 358
11389 17690 321
11390 16810 365
11391 14431 513
11392 12251 269
11393 15522 260
11394 13938 980
11395 18434 329
11396 17238 452
11397 16752 304
11398 12897 282
11399 16373 969
11400 17155 698
11401 15645 532
11402 14055 212
11403 18603 368
11404 16737 589
11405 19441 252
11406 17629 229
11407 15739 212
11408 16132 597
11409 14337 509
11410 12621 367
11411 13659 88
11412 11475 218
11413 18225 888
11414 12251 112
11415 18303 983
11416 13130 887
11417 12563 41
11418 13326 870
11419 19261 496
11420 17705 427
11421 17017 164
11422 11431 431
11423 11720 312
11424 13985 523
11425 14665 489
11426 13416 645
11427 14751 169
11428 18138 801
11429 15698 498
11430 13142 748
11431 18322 304
11432 14553 317
11433 15785 803
11434 11893 505
11435 15927 477
11436 18368 875
11437 17219 733
11438 13410 532
11439 16952 648
11440 17057 989
11441 15801 263
11442 14022 92
11443 11573 882
11444 18426 731
11445 14272 579
11446 16503 607
11447 13963 39
11448 11841 301
11449 15502 321
11450 15605 937
11451 16230 234
11452 19111 487
11453 11514 276
11454 17666 944
11455 14480 495
11456 15097 987
11457 19381 923
11458 14133 711
11459 15137 777
11460 13316 191
11461 18156 185
11462 16457 17
11463 11805 970
11464 18774 157
11465 11879 613
11466 12434 55
11467 14904 587
11468 14136 811
11469 16233 791
11470 14290 339
11471 12701 412
11472 11783 686
11473 12830 224
11474 13965 979
11475 12554 142
11476 11957 409
11477 16473 240
11478 13581 238
11479 17734 646
11480 18099 781
11481 18256 887
11482 17692 476
11483 18284 173
11484 16042 691
11485 18164 350
11486 18162 22
11487 14440 106
11488 13335 6
11489 14753 566
11490 12616 676
11491 13453 746
11492 17572 877
11493 17949 461
11494 12271 134
11495 12235 471
11496 16382 574
11497 12778 583
11498 14422 830
11499 14805 281
11500 14468 416
11501 13385 562
11502 18721 809
11503 11752 678
11504 11544 128
11505 12577 32
11506 16872 773
11507 13307 629
11508 18252 450
11509 13275 630
11510 17685 651
11511 17252 623
11512 19093 536
11513 13752 968
11514 12673 562
11515 12299 55
11516 12874 169
11517 16552 741
11518 16664 652
11519 14824 870
11520 14963 681
11521 17163 940
11522 17931 969
11523 19174 431
11524 19002 59
11525 12758 188
11526 16058 926
11527 13103 24
11528 12580 497
11529 12150 598
11530 13147 766
11531 15073 573
11532 16309 610
11533 17471 523
11534 17164 409
11535 11549 681
11536 18068 976
11537 17759 8
11538 17074 812
11539 12059 110
11540 19445 893
11541 12189 628
11542 18670 437
11543 15111 57
11544 19185 483
11545 15059 192
11546 13778 347
11547 17363 403
11548 18626 435
11549 17945 204
11550 16201 480
11551 13771 692
11552 12076 282
11553 13010 712
11554 16845 216
11555 13287 388
11556 12959 446
11557 18826 335
11558 18868 704
11559 17886 8
11560 17689 383
11561 17259 111
11562 12477 759
11563 12813 43
11564 17973 953
11565 15155 252
11566 13784 73
11567 18948 419
11568 15959 103
11569 12470 489
11570 17095 938
11571 13655 90
11572 11672 663
11573 13891 230
11574 16278 285
11575 18384 577
11576 12020 297
11577 12965 824
11578 12311 85
11579 16548 322
11580 19421 157
11581 11633 676
11582 18667 28
11583 15207 888
11584 17815 430
11585 12062 727
11586 18771 551
11587 12329 247
11588 16125 188
11589 18718 157
11590 14618 516
11591 17398 314
11592 16591 410
11593 19242 83
11594 12074 177
11595 13379 461
11596 15584 659
11597 12290 829
11598 16988 286
11599 14306 297
11600 14336 832
11601 14543 205
11602 13190 89
11603 15157 500
11604 12379 931
11605 13205 439
11606 18621 572
11607 16887 503
11608 18654 902
11609 17672 563
11610 18410 112
11611 15278 139
11612 15220 135
11613 14918 215
11614 13658 284
11615 12904 440
11616 16616 898
11617 14355 115
11618 16249 165
11619 17123 127
11620 12872 735
11621 12469 56
11622 14859 462
11623 18428 925
11624 16521 292
11625 17941 776
11626 16781 535
11627 16661 83
11628 19217 464
11629 13477 164
11630 13035 746
11631 16497 324
11632 14034 610
11633 18995 384
11634 17177 109
11635 18751 121
11636 19252 371
11637 14391 198
11638 12569 590
11639 11919 800
11640 17478 404
11641 12310 94
11642 16883 630
11643 14989 437
11644 18381 693
11645 17395 635
11646 12162 161
11647 13449 175
11648 13693 282
11649 16485 623
11650 18025 570
11651 19308 308
11652 13357 621
11653 18725 346
11654 13711 435
11655 18705 252
11656 18237 504
11657 17285 201
11658 13365 619
11659 13195 547
11660 12792 628
11661 12315 437
11662 14549 412
11663 17087 16
11664 13788 389
11665 14438 633
11666 12058 42
11667 16707 901
11668 14920 676
11669 16295 882
11670 17238 394
11671 19428 674
11672 17549 6
11673 12862 752
11674 13944 662
11675 15459 461
11676 14471 704
11677 17749 546
11678 15795 79
11679 12350 513
11680 18293 140
11681 16375 86
11682 15099 749
11683 16376 339
11684 15284 154
11685 14402 254
11686 15120 13
11687 13874 145
11688 18831 849
11689 14356 465
11690 15304 309
11691 19305 991
11692 16695 503
11693 12469 849
11694 15581 460
11695 16804 658
11696 12454 300
11697 15987 247
11698 16283 494
11699 13407 157
11700 14912 739
11701 19432 884
11702 12123 46
11703 18673 417
11704 17316 851
11705 15739 419
11706 18305 63
11707 14248 721
11708 18198 728
11709 15905 348
11710 18990 978
11711 17544 507
11712 15390 248
11713 16879 519
11714 18379 262
11715 17987 478
11716 18604 905
11717 13762 447
11718 15494 827
11719 13869 467
11720 13920 651
11721 11934 989
11722 13703 299
11723 14982 724
11724 14053 505
11725 13799 909
11726 14884 616
11727 14393 162
11728 16043 497
11729 16058 783
11730 18167 369
11731 12328 268
11732 15209 767
11733 12387 219
11734 18723 106
11735 17184 105
11736 14795 502
11737 18650 817
11738 17726 832
11739 14948 267
11740 13066 852
11741 17454 212
11742 13730 680
11743 17094 529
11744 15500 972
11745 13257 693
11746 17170 365
11747 13496 786
11748 11995 757
11749 18266 176
11750 15430 390
11751 16944 745
11752 13147 431
11753 11805 216
11754 19451 777
11755 12228 274
11756 12407 218
11757 18510 938
11758 18713 602
11759 14270 913
11760 13129 465
11761 18868 116
11762 15256 375
11763 12204 821
11764 14601 30
11765 16860 997
11766 16624 622
11767 16007 6
11768 12097 581
11769 14621 391
11770 14664 391
11771 18710 300
11772 15678 621
11773 12884 610
11774 13797 685
11775 19344 946
11776 12915 657
11777 12410 419
11778 15603 573
11779 15266 391
11780 14857 559
11781 19180 33
11782 12338 882
11783 17846 146
11784 16716 500
11785 18162 659
11786 12973 548
11787 18505 201
11788 12883 750
11789 13931 809
11790 17173 838
11791 13873 490
11792 15748 742
11793 12954 987
11794 17531 153
11795 19334 1
11796 16220 427
11797 17994 282
11798 13563 632
11799 15676 71
11800 14201 552
11801 12600 395
11802 13577 664
11803 14074 22
11804 18317 631
11805 19250 210
11806 14154 848
11807 17861 539
11808 12609 757
11809 17586 814
11810 13886 679
11811 16992 693
11812 16205 401
11813 16890 651
11814 13697 585
11815 16749 236
11816 17983 601
11817 18087 891
11818 17806 944
11819 12184 991
11820 14516 569
11821 17357 563
11822 17571 982
11823 18105 133
11824 13432 957
11825 17595 420
11826 13532 713
11827 15833 402
11828 14214 485
11829 11902 786
11830 14797 4
11831 16954 891
11832 14641 883
11833 17723 756
11834 19149 695
11835 18498 325
11836 13553 671
11837 13178 660
11838 17759 394
11839 17136 918
11840 16552 997
11841 13758 668
11842 17420 444
11843 11994 210
11844 17603 776
11845 17842 268
11846 14697 192
11847 15645 657
11848 16633 737
11849 13229 282
11850 15476 272
11851 14391 4
11852 16882 432
11853 16792 514
11854 19292 275
11855 16134 791
11856 16660 711
11857 19466 251
11858 18751 950
11859 13491 945
11860 19156 260
11861 11912 945
11862 14815 654
11863 15208 27
11864 13780 765
11865 17156 148
11866 14953 394
11867 15405 581
11868 18620 173
11869 13269 12
11870 15916 242
11871 17352 598
11872 16054 805
11873 15908 812
11874 19405 518
11875 12462 638
11876 17569 421
11877 14971 378
11878 14902 871
11879 15179 852
11880 12597 225
11881 13436 586
11882 14375 243
11883 15182 275
11884 12064 624
11885 13302 116
11886 14905 556
11887 17980 598
11888 12712 83
11889 14140 696
11890 18986 792
11891 12533 713
11892 19285 306
11893 15177 268
11894 16014 509
11895 19201 884
11896 19159 614
11897 13803 948
11898 15700 380
11899 13557 148
11900 14849 139
11901 18801 477
11902 12235 743
11903 18023 263
11904 18412 547
11905 19064 326
11906 15851 412
11907 19408 909
11908 17678 179
11909 14642 116
11910 14518 135
11911 16264 532
11912 14023 827
11913 12678 723
11914 15116 955
11915 18247 218
11916 13004 717
11917 17463 713
11918 15067 1
11919 16578 184
11920 13450 312
11921 13099 738
11922 19037 475
11923 12702 933
11924 18199 561
11925 16894 343
11926 11938 657
11927 15062 144
11928 18385 311
11929 17871 546
11930 15264 244
11931 15656 48
11932 17711 631
11933 12014 47
11934 14076 860
11935 17753 598
11936 13803 301
11937 17871 129
11938 17316 27
11939 12743 210
11940 15861 74
11941 13796 896
11942 17915 102
11943 16450 413
11944 12495 492
11945 13023 350
11946 13033 918
11947 12567 460
11948 17872 979
11949 19402 904
11950 13964 110
11951 14759 218
11952 18444 521
11953 14338 572
11954 14496 388
11955 16523 308
11956 13248 798
11957 18788 94
11958 13863 436
11959 13631 160
11960 14798 918
11961 13537 558
11962 17813 603
11963 11995 394
11964 15628 623
11965 16031 65
11966 12477 288
11967 15130 457
11968 17258 508
11969 17809 70
11970 17203 982
11971 16968 140
11972 18609 456
11973 19130 646
11974 16918 999
11975 15791 807
11976 16831 2
11977 18795 298
11978 15223 341
11979 16837 896
11980 15529 777
11981 14249 184
11982 15752 963
11983 12586 855
11984 15370 245
11985 17405 523
11986 19276 558
11987 13862 703
11988 16043 25
11989 18573 394
11990 14628 971
11991 14754 579
11992 18675 82
11993 15871 636
11994 14613 894
11995 14229 212
11996 15442 657
11997 12311 880
11998 18756 623
11999 13245 916
12000 16699 413
12001 16415 117
12002 15142 500
12003 15462 82
12004 16292 653
12005 16325 548
12006 15363 424
12007 16983 234
12008 17470 864
12009 17769 74
12010 19365 280
12011 16141 678
12012 16418 159
12013 15836 292
12014 16001 689
12015 17855 14
12016 15225 441
12017 15687 5
12018 12130 643
12019 17840 775
12020 17223 461
12021 14353 149
12022 16985 617
12023 14304 142
12024 16121 636
12025 12996 336
12026 15378 115
12027 18995 98
12028 14410 926
12029 17812 607
12030 15047 835
12031 16045 821
12032 18889 852
12033 15872 401
12034 16956 848
12035 13152 958
12036 14527 333
12037 17436 315
12038 15255 528
12039 19043 227
12040 16319 616
12041 15194 548
12042 13219 612
12043 17794 863
12044 13009 851
12045 12316 65
12046 18928 36
12047 14560 691
12048 16201 565
12049 17490 986
12050 17835 609
12051 14898 31
12052 15758 444
12053 14427 946
12054 14150 795
12055 15997 173
12056 17967 922
12057 14819 159
12058 12470 211
12059 13598 609
12060 18169 308
12061 16831 846
12062 16093 499
12063 16764 312
12064 13555 682
12065 14039 668
12066 17624 517
12067 16996 103
12068 13785 187
12069 13170 782
12070 17785 4
12071 13134 675
12072 17246 1
12073 12543 729
12074 17228 713
12075 13724 671
12076 16914 840
12077 14884 618
12078 12403 644
12079 19224 900
12080 16833 16
12081 13005 518
12082 19221 956
12083 18339 495
12084 18979 212
12085 13932 442
12086 13974 771
12087 14583 939
12088 14890 642
12089 19009 501
12090 18756 120
12091 14014 523
12092 15981 829
12093 12904 497
12094 16977 125
12095 17981 317
12096 13888 522
12097 12383 815
12098 18284 734
12099 14576 894
12100 15487 460
12101 17922 442
12102 12798 549
12103 13222 864
12104 17550 304
12105 16436 233
12106 15521 257
12107 16870 955
12108 12436 837
12109 14095 43
12110 16909 993
12111 12738 368
12112 13935 969
12113 15238 316
12114 16113 186
12115 19338 725
12116 12522 206
12117 12476 342
12118 17591 408
12119 17074 428
12120 18660 715
12121 18134 403
12122 16359 105
12123 15696 137
12124 13771 375
12125 12293 864
12126 12278 836
12127 16868 497
12128 14849 799
12129 16378 38
12130 15491 503
12131 15517 254
12132 17093 527
12133 13252 978
12134 15991 715
12135 16835 146
12136 17334 34
12137 17777 29
12138 18183 637
12139 15737 863
12140 15358 664
12141 17355 369
12142 12449 994
12143 17287 724
12144 12310 749
12145 12532 387
12146 14730 907
12147 13557 933
12148 16326 680
12149 12765 40
12150 17102 95
12151 15030 116
12152 17796 767
12153 16412 62
12154 19076 181
12155 13100 703
12156 12718 352
12157 19080 213
12158 14215 398
12159 19079 227
12160 18492 191
12161 17705 393
12162 14193 462
12163 12979 438
12164 12436 17
12165 19102 504
12166 19172 227
12167 17133 565
12168 12250 629
12169 17328 963
12170 13751 139
12171 12952 418
12172 15130 196
12173 16584 254
12174 18979 641
12175 17311 13
12176 18120 795
12177 13583 904
12178 18770 353
12179 18284 314
12180 12656 906
12181 13515 336
12182 13195 224
12183 19238 90
12184 16591 244
12185 17149 384
12186 18667 797
12187 12696 71
12188 16691 682
12189 15988 636
12190 15635 225
12191 16986 369
12192 16253 153
12193 15883 690
12194 16820 614
12195 17115 897
12196 13344 393
12197 18543 188
12198 17800 934
12199 16047 921
12200 16032 752
12201 12950 280
12202 13655 407
12203 12438 236
12204 17969 736
12205 19013 534
12206 12249 927
12207 15402 86
12208 14782 103
12209 17224 758
12210 17541 234
12211 18669 580
12212 13783 852
12213 14506 858
12214 15161 558
12215 15295 82
12216 12890 457
12217 16231 638
12218 16357 497
12219 12733 344
12220 18722 600
12221 15379 867
12222 18344 935
12223 18910 104
12224 17087 817
12225 18819 984
12226 12306 83
12227 16450 268
12228 14369 538
12229 16487 59
12230 16176 457
12231 16476 608
12232 12612 389
12233 13862 80
12234 13042 169
12235 12784 743
12236 15108 56
12237 13435 904
12238 12462 17
12239 17501 927
12240 16321 792
12241 17713 196
12242 16503 365
12243 16070 455
12244 18318 76
12245 18761 985
12246 13520 53
12247 15200 217
12248 15659 336
12249 18683 255
12250 15174 160
12251 14530 668
12252 14587 53
12253 19410 508
12254 17611 737
12255 16271 959
12256 16333 22
12257 13664 919
12258 18876 202
12259 17057 936
12260 16703 745
12261 19430 798
12262 17614 287
12263 19135 342
12264 15994 583
12265 17800 196
12266 14137 231
12267 12878 739
12268 18556 969
12269 15215 701
12270 16939 443
12271 14307 458
12272 15879 11
12273 13375 945
12274 14651 168
12275 12501 971
12276 12729 90
12277 14808 599
12278 17940 980
12279 12906 232
12280 16538 834
12281 15334 205
12282 12952 789
12283 12297 622
12284 15570 420
12285 15129 4
12286 15112 932
12287 17341 766
12288 12590 377
12289 13061 600
12290 16597 13
12291 12508 203
12292 13852 601
12293 17763 420
12294 17669 234
12295 13095 947
12296 18143 307
12297 18069 696
12298 18123 387
12299 17737 757
12300 14787 600
12301 16825 403
12302 18778 535
12303 16978 476
12304 17285 708
12305 12364 462
12306 17334 763
12307 13862 572
12308 16031 343
12309 18083 858
12310 12896 892
12311 15593 300
12312 13208 91
12313 16038 109
12314 15299 2
12315 18209 16
12316 18067 71
12317 14573 824
12318 16111 695
12319 19198 561
12320 14554 188
12321 15310 941
12322 13697 439
12323 14386 1000
12324 17501 559
12325 19048 143
12326 18947 2
12327 16693 334
12328 12534 647
12329 12972 255
12330 17855 208
12331 14520 528
12332 17874 167
12333 12772 692
12334 12707 547
12335 15450 852
12336 14324 88
12337 16982 405
12338 13877 787
12339 17809 263
12340 18745 482
12341 18815 541
12342 16999 628
12343 18485 626
12344 16771 600
12345 12651 334
12346 15909 914
12347 18936 270
12348 18964 274
12349 16997 323
12350 14956 587
12351 14080 628
12352 14891 77
12353 14032 794
12354 17503 936
12355 12772 690
12356 18684 396
12357 12732 598
12358 17102 205
12359 14146 26
12360 19311 362
12361 13484 280
12362 19461 809
12363 14418 776
12364 15857 111
12365 18633 983
12366 19447 919
12367 13416 816
12368 15660 915
12369 19250 1
12370 14415 787
12371 19415 495
12372 16686 410
12373 17334 754
12374 19137 203
12375 15286 107
12376 12756 504
12377 15736 667
12378 16138 555
12379 18326 3
12380 16904 170
12381 12885 609
12382 13146 5
12383 16257 7
12384 14324 339
12385 17233 212
12386 13903 613
12387 17291 151
12388 16157 504
12389 13417 484
12390 14627 999
12391 12496 208
12392 14248 344
12393 18733 286
12394 17328 863
12395 13096 690
12396 18832 344
12397 13909 757
12398 19341 95
12399 16160 91
12400 17031 388
12401 18456 68
12402 19332 507
12403 13750 86
12404 16651 196
12405 19237 525
12406 13782 459
12407 15848 618
12408 16465 931
12409 15655 143
12410 12688 736
12411 13818 616
12412 14353 736
12413 17141 146
12414 16105 29
12415 14503 933
12416 14324 798
12417 17552 958
12418 15477 741
12419 19250 889
12420 16874 472
12421 14553 463
12422 15544 604
12423 17281 243
12424 12466 414
12425 14965 803
12426 13202 515
12427 17249 890
12428 19396 13
12429 17259 286
12430 14836 495
12431 17000 370
12432 16916 90
12433 12701 106
12434 14002 520
12435 18011 746
12436 18103 498
12437 12654 273
12438 15069 79
12439 15318 599
12440 17457 891
12441 15560 36
12442 14399 857
12443 17585 144
12444 14916 499
12445 19194 784
12446 14647 775
12447 16475 924
12448 19057 691
12449 17211 413
12450 15226 4
12451 16001 236
12452 18167 181
12453 19412 943
12454 13945 706
12455 14739 442
12456 15348 558
12457 16244 603
12458 17120 850
12459 18473 462
12460 15772 78
12461 17760 242
12462 14090 437
12463 17933 468
12464 16626 363
12465 15382 309
12466 17375 176
12467 12709 201
12468 19287 984
12469 15880 52
12470 14907 370
12471 15013 278
12472 17568 551
12473 14388 71
12474 17771 467
12475 19317 389
12476 16153 944
12477 14242 695
12478 15213 546
12479 15020 866
12480 16312 368
12481 19150 552
12482 18747 831
12483 19081 992
12484 12909 311
12485 18102 785
12486 18066 759
12487 12711 403
12488 13523 497
12489 12579 51
12490 13691 561
12491 15919 560
12492 17258 473
12493 15443 149
12494 16869 765
12495 13826 214
12496 19043 843
12497 14473 125
12498 12604 1
12499 18336 10
12500 14402 938
12501 17416 442
12502 13238 429
12503 14461 573
12504 18984 138
12505 15418 259
12506 17260 254
12507 14554 596
12508 18694 814
12509 12731 585
12510 16619 464
12511 16019 841
12512 13559 588
12513 12641 585
12514 18609 37
12515 15002 163
12516 18784 568
12517 14216 198
12518 13957 953
12519 14319 722
12520 14612 184
12521 15855 341
12522 19259 197
12523 16366 761
12524 15701 489
12525 14319 795
12526 17430 707
12527 17658 733
12528 13835 279
12529 18510 756
12530 12754 131
12531 15352 435
12532 18326 763
12533 12654 919
12534 18946 94
12535 16700 583
12536 13148 862
12537 17888 565
12538 15716 276
12539 13861 355
12540 15630 609
12541 18900 631
12542 13787 744
12543 14695 581
12544 13399 701
12545 15265 943
12546 17844 678
12547 18855 65
12548 19294 109
12549 19144 260
12550 18953 617
12551 16702 531
12552 15062 649
12553 13265 267
12554 17446 710
12555 16893 583
12556 19153 396
12557 12849 726
12558 17304 32
12559 18985 619
12560 13458 186
12561 18037 714
12562 17356 130
12563 17627 432
12564 13452 440
12565 17721 463
12566 13745 667
12567 13916 210
12568 16114 470
12569 16883 873
12570 18003 689
12571 17075 528
12572 14189 264
12573 17445 583
12574 18646 634
12575 14019 257
12576 14640 632
12577 15731 414
12578 12643 611
12579 14552 335
12580 16620 895
12581 15468 134
12582 19274 243
12583 15571 442
12584 18052 863
12585 18171 275
12586 17174 370
12587 16977 463
12588 17579 421
12589 13121 217
12590 14669 599
12591 16298 124
12592 18293 948
12593 15721 76
12594 15016 119
12595 15590 970
12596 19149 871
12597 17973 620
12598 18423 148
12599 18394 391
12600 16524 363
12601 15043 330
12602 19164 391
12603 13989 636
12604 16784 857
12605 16272 819
12606 18987 411
12607 15410 760
12608 14994 549
12609 15562 337
12610 13343 365
12611 14271 102
12612 18884 99
12613 14502 564
12614 19128 940
12615 17828 657
12616 16880 970
12617 12719 753
12618 16314 933
12619 16981 321
12620 17037 921
12621 17153 950
12622 14644 128
12623 16780 378
12624 18973 253
12625 16412 263
12626 14536 583
12627 14796 817
12628 13163 145
12629 15614 78
12630 17438 91
12631 19438 452
12632 14993 645
12633 14831 661
12634 16868 199
12635 17541 641
12636 18190 44
12637 17222 112
12638 17325 469
12639 14070 175
12640 19467 379
12641 15494 603
12642 14279 17
12643 13960 294
12644 18874 657
12645 18364 928
12646 16043 996
12647 16800 149
12648 17717 792
12649 18553 650
12650 16452 840
12651 13479 768
12652 19335 949
12653 18038 379
12654 13132 947
12655 13710 53
12656 16956 529
12657 13726 663
12658 15943 915
12659 18864 639
12660 17991 73
12661 17873 961
12662 12773 544
12663 12753 589
12664 14458 657
12665 12936 211
12666 17027 613
12667 14715 805
12668 19486 81
12669 14870 511
12670 16970 968
12671 15381 36
12672 18468 784
12673 15071 122
12674 14830 783
12675 13026 590
12676 15769 207
12677 17388 85
12678 16978 495
12679 14522 643
12680 13472 231
12681 14087 828
12682 19271 58
12683 13031 218
12684 14131 156
12685 17624 735
12686 17866 651
12687 17348 195
12688 19298 307
12689 18258 327
12690 15477 68
12691 17308 658
12692 15820 217
12693 14289 20
12694 16988 698
12695 18801 614
12696 13610 368
12697 16675 237
12698 13205 520
12699 16676 414
12700 17661 184
12701 18237 366
12702 14915 318
12703 14598 212
12704 13685 249
12705 18138 725
12706 18126 450
12707 14858 851
12708 15597 399
12709 18162 875
12710 12870 353
12711 16718 333
12712 16820 57
12713 12730 832
12714 14179 325
12715 13783 266
12716 13404 386
12717 16987 585
12718 12975 971
12719 15805 607
12720 18202 395
12721 14381 314
12722 19448 731
12723 17349 472
12724 18710 158
12725 14245 528
12726 14989 22
12727 17959 398
12728 13219 968
12729 18430 49
12730 16236 354
12731 17848 766
12732 15005 412
12733 17659 220
12734 16307 769
12735 18881 214
12736 18776 939
12737 15234 545
12738 14189 735
12739 16210 293
12740 18408 575
12741 17681 640
12742 18797 812
12743 14169 464
12744 19384 623
12745 17784 630
12746 12780 719
12747 14986 475
12748 16170 641
12749 16769 771
12750 16259 201
12751 18625 131
12752 18493 76
12753 17488 815
12754 16090 557
12755 19368 269
12756 15713 429
12757 13711 364
12758 18437 539
12759 14694 136
12760 19481 336
12761 15007 210
12762 18727 163
12763 18299 231
12764 15677 133
12765 14110 528
12766 14113 52
12767 17712 107
12768 16339 28
12769 16875 795
12770 17510 117
12771 19470 921
12772 17561 464
12773 14009 82
12774 13752 613
12775 13622 555
12776 15330 458
12777 15177 316
12778 13020 731
12779 17890 496
12780 15548 191
12781 19452 767
12782 19139 564
12783 14630 352
12784 18279 857
12785 13035 521
12786 15663 691
12787 18218 370
12788 16559 505
12789 18225 201
12790 17027 188
12791 14118 166
12792 16635 39
12793 18798 477
12794 16039 617
12795 16345 56
12796 13513 12
12797 17477 404
12798 16527 712
12799 15204 394
12800 17281 928
12801 18317 730
12802 14675 66
12803 16259 263
12804 16689 445
12805 18186 593
12806 12978 172
12807 13090 43
12808 13528 544
12809 14737 618
12810 16817 234
12811 17149 681
12812 13010 627
12813 16792 842
12814 13696 166
12815 16408 620
12816 14329 161
12817 14094 525
12818 15140 702
12819 15569 238
12820 13370 658
12821 14142 719
12822 15211 26
12823 18220 27
12824 15197 12
12825 16032 262
12826 13170 661
12827 18564 696
12828 13381 507
12829 13486 148
12830 17210 546
12831 16561 701
12832 16345 689
12833 14457 75
12834 16837 442
12835 14436 678
12836 16305 337
12837 15658 708
12838 19030 683
12839 13598 79
12840 19320 706
12841 18260 330
12842 17064 691
12843 17208 634
12844 13701 337
12845 15793 576
12846 13224 545
12847 19107 554
12848 18234 257
12849 13686 181
12850 18028 463
12851 17899 408
12852 19210 154
12853 14616 277
12854 13224 708
12855 17209 862
12856 14607 780
12857 19207 919
12858 13140 40
12859 15623 820
12860 13947 852
12861 14743 26
12862 13990 344
12863 17023 904
12864 14522 659
12865 14055 449
12866 14902 353
12867 13285 613
12868 18831 2
12869 18966 214
12870 14104 103
12871 14839 183
12872 16389 67
12873 17226 203
12874 19081 157
12875 16657 690
12876 18681 874
12877 17244 251
12878 17043 694
12879 16804 592
12880 16935 703
12881 13513 629
12882 16195 226
12883 12907 873
12884 14568 393
12885 15440 150
12886 17478 536
12887 14162 451
12888 13797 154
12889 13805 62
12890 16004 819
12891 13338 589
12892 17553 274
12893 15102 468
12894 17137 784
12895 14647 191
12896 15186 151
12897 17064 538
12898 18973 862
12899 16207 730
12900 12935 488
12901 13937 537
12902 15681 951
12903 13299 187
12904 14302 54
12905 19099 8
12906 15469 796
12907 16498 841
12908 15725 667
12909 14565 258
12910 14100 471
12911 16765 564
12912 17603 941
12913 18904 542
12914 17774 432
12915 15786 319
12916 18596 941
12917 16606 989
12918 18063 553
12919 16583 474
12920 14583 675
12921 15575 643
12922 13438 94
12923 14795 316
12924 17927 199
12925 18544 323
12926 18581 707
12927 17698 633
12928 15756 84
12929 15769 327
12930 13840 853
12931 15614 246
12932 18452 686
12933 16215 66
12934 15325 168
12935 13327 531
12936 18770 516
12937 17187 50
12938 17494 45
12939 14970 662
12940 14012 566
12941 19155 643
12942 13746 58
12943 14553 157
12944 16021 802
12945 13996 677
12946 14483 4
12947 19363 454
12948 15111 69
12949 19397 961
12950 12969 701
12951 16056 79
12952 19369 624
12953 16147 223
12954 18264 536
12955 17748 328
12956 18692 257
12957 14635 957
12958 18626 794
12959 18467 963
12960 18235 165
12961 15867 753
12962 19023 918
12963 14173 554
12964 15748 853
12965 13071 889
12966 14870 940
12967 15063 174
12968 17843 410
12969 18692 503
12970 15732 216
12971 18479 36
12972 15153 253
12973 18059 5
12974 17124 817
12975 17107 16
12976 13219 291
12977 17513 543
12978 14846 588
12979 13904 150
12980 19154 276
12981 16881 471
12982 18275 100
12983 14688 747
12984 16562 214
12985 19206 122
12986 16983 481
12987 18150 660
12988 19016 339
12989 18094 31
12990 15878 646
12991 13157 254
12992 13024 593
12993 14639 64
12994 17476 25
12995 15775 671
12996 14649 37
12997 15279 266
12998 13986 585
12999 14644 124
13000 15649 330
13001 14772 74
13002 14012 554
13003 16013 210
13004 17903 643
13005 14104 363
13006 15557 444
13007 17149 549
13008 18655 827
13009 16963 922
13010 18354 858
13011 17546 300
13012 15070 3
13013 19209 137
13014 17354 557
13015 15972 752
13016 18203 791
13017 15318 143
13018 19000 357
13019 19497 739
13020 18359 411
13021 13473 40
13022 17527 568
13023 18198 245
13024 18394 174
13025 17789 633
13026 17115 480
13027 15992 866
13028 16420 620
13029 13494 407
13030 17997 899
13031 13081 78
13032 14484 711
13033 14597 88
13034 18539 780
13035 18594 345
13036 15747 44
13037 14431 12
13038 16836 390
13039 13607 277
13040 18964 540
13041 13611 47
13042 16700 614
13043 13235 82
13044 18560 360
13045 14637 831
13046 13733 207
13047 18042 976
13048 15539 383
13049 16006 756
13050 14625 145
13051 18996 827
13052 13827 872
13053 14351 797
13054 14376 205
13055 13366 917
13056 18660 113
13057 15950 155
13058 17798 949
13059 15014 524
13060 13089 174
13061 17404 613
13062 16667 171
13063 15081 301
13064 16422 877
13065 19078 295
13066 19160 663
13067 15298 141
13068 14899 778
13069 16355 193
13070 15847 829
13071 15942 280
13072 15737 718
13073 15930 416
13074 15170 905
13075 13647 936
13076 14891 504
13077 15719 774
13078 15095 594
13079 16912 260
13080 15982 940
13081 14647 630
13082 14704 428
13083 13106 332
13084 14101 102
13085 16168 921
13086 14505 958
13087 15233 576
13088 15505 324
13089 17760 60
13090 13841 619
13091 14620 277
13092 18531 743
13093 16766 205
13094 13693 974
13095 17429 494
13096 18405 736
13097 16454 977
13098 15715 19
13099 16800 910
13100 17734 714
13101 14575 886
13102 18305 506
13103 17114 143
13104 14911 167
13105 14674 62
13106 14450 930
13107 18362 785
13108 14352 361
13109 15271 869
13110 15755 180
13111 18070 336
13112 15750 962
13113 18006 4
13114 18485 364
13115 15404 324
13116 17378 563
13117 16231 747
13118 17284 189
13119 14416 178
13120 16737 992
13121 15349 993
13122 19462 87
13123 16855 162
13124 15671 697
13125 18060 402
13126 14396 329
13127 18045 109
13128 18144 736
13129 16600 948
13130 18735 634
13131 19434 470
13132 17179 805
13133 19119 122
13134 19170 673
13135 15093 252
13136 13867 550
13137 15923 471
13138 13932 409
13139 14480 115
13140 14125 127
13141 16273 973
13142 13248 50
13143 13724 38
13144 16429 705
13145 18328 801
13146 17271 376
13147 16171 474
13148 15042 616
13149 15391 315
13150 15153 585
13151 16035 625
13152 16296 543
13153 14065 179
13154 18209 59
13155 18041 632
13156 14634 124
13157 13665 260
13158 13559 963
13159 17952 37
13160 15078 354
13161 15387 827
13162 15119 120
13163 18009 353
13164 16845 723
13165 17780 738
13166 13707 376
13167 18457 744
13168 17869 880
13169 13859 462
13170 16948 401
13171 16917 845
13172 17398 349
13173 15998 44
13174 13809 803
13175 17617 892
13176 14830 226
13177 17453 325
13178 16876 938
13179 16494 586
13180 13733 635
13181 13281 393
13182 18267 194
13183 18195 797
13184 19290 181
13185 18782 242
13186 18158 451
13187 15272 631
13188 14671 164
13189 18605 667
13190 16856 253
13191 16942 704
13192 16309 612
13193 18426 232
13194 14485 498
13195 16467 644
13196 15670 750
13197 15020 899
13198 18071 729
13199 14207 454
13200 14117 286
13201 17229 446
13202 19003 221
13203 17346 875
13204 14795 116
13205 13302 597
13206 13336 676
13207 14209 243
13208 17298 874
13209 16151 968
13210 18519 549
13211 18238 516
13212 15069 214
13213 17830 774
13214 17513 621
13215 16114 132
13216 15624 397
13217 16493 688
13218 13349 493
13219 18957 809
13220 16959 638
13221 15951 491
13222 15951 927
13223 17363 896
13224 14712 219
13225 18507 119
13226 18923 935
13227 15169 876
13228 16293 883
13229 18582 862
13230 17166 24
13231 18145 962
13232 19003 905
13233 19479 301
13234 13913 92
13235 16428 624
13236 16900 687
13237 13579 752
13238 17729 348
13239 13489 588
13240 19496 600
13241 17850 526
13242 19437 125
13243 15058 128
13244 14696 540
13245 13759 504
13246 14010 549
13247 19252 300
13248 16358 969
13249 17466 680
13250 15340 196
13251 13810 894
13252 13878 853
13253 19117 1
13254 16013 361
13255 17856 931
13256 14908 113
13257 13655 262
13258 19100 392
13259 17676 217
13260 18884 257
13261 18745 908
13262 13801 27
13263 16401 710
13264 13399 115
13265 15225 830
13266 19095 696
13267 18892 36
13268 19053 974
13269 13840 385
13270 15031 314
13271 14809 36
13272 13316 357
13273 19083 473
13274 14637 936
13275 13440 190
13276 18983 845
13277 14547 774
13278 15702 450
13279 14122 177
13280 17185 560
13281 13802 865
13282 15963 287
13283 14770 241
13284 18203 991
13285 16066 857
13286 18879 79
13287 18545 290
13288 15195 216
13289 13479 779
13290 17374 713
13291 18148 855
13292 13298 639
13293 17723 918
13294 16199 623
13295 19033 533
13296 16432 858
13297 14615 668
13298 17154 429
13299 15361 318
13300 16278 694
13301 18211 201
13302 16157 326
13303 14034 94
13304 15282 345
13305 13573 896
13306 17946 899
13307 14038 936
13308 13404 59
13309 14928 793
13310 14695 999
13311 19236 830
13312 16978 492
13313 16583 608
13314 17438 78
13315 16402 311
13316 14181 913
13317 18597 581
13318 19192 344
13319 15960 96
13320 16682 856
13321 15140 857
13322 18824 58
13323 17467 709
13324 17558 792
13325 14428 400
13326 16247 704
13327 18607 667
13328 18101 46
13329 13634 282
13330 16514 892
13331 19079 864
13332 13423 243
13333 16253 596
13334 16956 634
13335 15705 873
13336 15684 525
13337 17208 730
13338 17423 811
13339 18773 349
13340 14203 337
13341 17556 439
13342 16780 934
13343 18683 154
13344 14338 810
13345 13968 407
13346 14223 30
13347 18409 744
13348 15052 989
13349 15503 719
13350 17783 74
13351 17025 318
13352 13682 97
13353 14226 446
13354 17357 700
13355 18974 646
13356 18763 525
13357 17811 915
13358 19366 154
13359 15699 643
13360 15744 524
13361 18981 909
13362 18994 631
13363 13568 329
13364 14573 217
13365 14525 224
13366 16734 527
13367 16741 383
13368 17068 216
13369 18111 408
13370 19010 205
13371 14027 481
13372 17627 24
13373 17155 839
13374 18720 378
13375 15297 748
13376 16574 830
13377 18990 865
13378 18978 48
13379 18909 318
13380 16542 665
13381 15376 38
13382 17536 257
13383 18028 27
13384 18220 545
13385 18390 121
13386 15414 56
13387 16245 628
13388 14036 451
13389 14841 615
13390 18897 886
13391 14150 393
13392 19473 695
13393 18065 520
13394 14884 740
13395 16203 411
13396 14442 184
13397 14087 392
13398 13929 965
13399 14237 494
13400 18047 39
13401 18596 1
13402 16902 135
13403 15487 799
13404 15271 309
13405 18620 428
13406 16735 641
13407 18202 106
13408 18016 301
13409 14034 63
13410 16933 300
13411 18099 550
13412 19312 659
13413 16371 394
13414 18273 134
13415 15713 532
13416 14875 258
13417 13739 493
13418 15316 169
13419 19121 925
13420 17825 484
13421 18371 627
13422 15307 462
13423 16458 94
13424 16679 786
13425 13515 923
13426 19218 678
13427 18145 715
13428 17494 18
13429 15389 186
13430 18534 959
13431 18805 632
13432 16669 940
13433 14976 820
13434 15776 247
13435 18871 926
13436 17018 835
13437 18868 65
13438 18373 216
13439 13777 594
13440 18021 601
13441 17160 626
13442 18727 88
13443 16847 230
13444 17786 844
13445 17994 742
13446 18597 565
13447 19009 437
13448 18639 552
13449 13586 484
13450 19373 802
13451 18591 185
13452 18737 711
13453 13709 13
13454 17923 686
13455 15858 289
13456 18057 4
13457 19249 989
13458 18976 409
13459 16353 744
13460 15023 870
13461 19286 19
13462 15337 908
13463 13534 169
13464 14178 459
13465 14275 600
13466 14440 283
13467 16329 428
13468 19453 154
13469 16681 653
13470 17912 988
13471 14144 885
13472 15226 123
13473 16035 137
13474 16514 777
13475 17559 903
13476 17782 680
13477 17256 367
13478 16334 180
13479 14349 490
13480 14860 726
13481 16387 995
13482 19411 558
13483 14840 568
13484 19044 357
13485 15954 915
13486 16782 732
13487 16357 726
13488 14969 581
13489 14766 215
13490 18009 223
13491 18199 295
13492 17634 47
13493 19215 649
13494 19008 99
13495 17907 420
13496 13998 945
13497 15941 315
13498 15641 828
13499 17692 648
13500 15677 448
13501 14276 743
13502 15855 501
13503 16611 264
13504 13774 696
13505 19122 441
13506 17802 650
13507 18094 832
13508 13773 249
13509 17912 514
13510 16917 950
13511 14282 796
13512 15530 687
13513 14554 357
13514 13701 707
13515 13962 80
13516 15272 197
13517 18059 227
13518 15119 301
13519 13861 278
13520 16877 252
13521 13880 965
13522 16470 138
13523 13696 225
13524 13904 271
13525 15481 192
13526 15187 237
13527 13536 675
13528 14152 826
13529 17152 182
13530 15085 727
13531 15949 503
13532 16903 628
13533 15859 890
13534 15669 485
13535 17819 374
13536 18506 574
13537 15674 515
13538 18614 260
13539 14380 735
13540 14520 919
13541 18670 707
13542 18950 421
13543 16633 981
13544 19141 218
13545 13794 590
13546 14064 66
13547 14698 151
13548 17569 840
13549 19350 377
13550 14105 577
13551 18372 500
13552 19136 867
13553 18059 832
13554 16047 894
13555 14337 710
13556 14779 188
13557 16296 581
13558 15571 112
13559 14649 821
13560 14063 522
13561 14282 69
13562 16367 120
13563 16833 926
13564 17921 888
13565 18933 570
13566 17891 5
13567 13911 608
13568 15309 378
13569 16041 783
13570 16508 556
13571 17758 848
13572 15723 839
13573 18359 424
13574 16804 109
13575 18863 113
13576 16289 574
13577 17834 880
13578 19427 435
13579 14341 206
13580 14420 992
13581 17369 770
13582 18988 992
13583 17216 347
13584 19322 706
13585 14465 625
13586 18290 578
13587 14872 461
13588 17378 717
13589 15683 557
13590 17208 850
13591 19278 525
13592 15670 188
13593 15725 174
13594 17251 350
13595 18469 713
13596 17920 525
13597 17132 91
13598 17852 204
13599 19435 194
13600 14685 874
13601 18933 955
13602 15562 77
13603 17102 579
13604 15111 965
13605 13800 250
13606 14937 554
13607 14701 650
13608 14792 532
13609 14019 133
13610 16834 552
13611 16516 950
13612 16151 920
13613 16298 998
13614 15790 577
13615 19479 510
13616 17755 634
13617 16936 56
13618 14249 891
13619 15973 328
13620 16173 562
13621 18135 994
13622 14518 713
13623 16382 411
13624 13872 276
13625 15446 661
13626 14464 878
13627 16132 904
13628 17646 891
13629 14150 706
13630 18507 949
13631 14450 751
13632 14154 485
13633 15561 870
13634 14338 175
13635 17764 943
13636 15328 937
13637 17186 187
13638 17271 602
13639 17689 574
13640 16728 797
13641 15233 928
13642 18698 226
13643 17742 273
13644 16846 519
13645 18789 996
13646 18035 722
13647 17958 830
13648 13656 634
13649 14497 738
13650 14840 182
13651 14295 44
13652 15341 984
13653 17371 53
13654 14187 14
13655 15525 282
13656 15759 303
13657 19132 930
13658 18080 895
13659 15962 678
13660 18075 957
13661 14410 419
13662 14652 510
13663 18099 854
13664 16787 590
13665 15664 215
13666 15273 447
13667 18880 971
13668 15500 357
13669 14780 561
13670 13896 662
13671 14425 29
13672 19443 820
13673 15561 544
13674 16635 892
13675 16364 991
13676 16592 52
13677 17506 319
13678 15738 189
13679 17922 935
13680 17060 387
13681 14861 960
13682 16280 256
13683 16861 835
13684 14478 97
13685 17088 248
13686 18590 370
13687 14248 974
13688 16931 137
13689 17896 529
13690 18343 449
13691 15875 432
13692 13743 472
13693 19181 919
13694 16741 960
13695 15998 371
13696 19000 99
13697 13775 256
13698 17742 186
13699 18921 544
13700 19396 787
13701 14566 652
13702 18811 302
13703 19032 511
13704 14143 451
13705 16741 339
13706 17964 160
13707 16663 100
13708 15433 630
13709 15510 683
13710 15110 128
13711 16056 16
13712 15260 272
13713 18567 356
13714 13925 273
13715 16671 17
13716 15276 589
13717 16245 542
13718 14168 774
13719 15317 425
13720 16985 716
13721 18808 266
13722 19016 993
13723 14594 69
13724 17419 802
13725 14654 432
13726 16136 197
13727 14052 464
13728 16552 668
13729 18984 771
13730 17142 63
13731 14981 845
13732 15737 677
13733 17809 678
13734 14614 373
13735 16726 539
13736 16305 193
13737 14299 802
13738 18221 510
13739 14009 531
13740 18195 264
13741 18454 250
13742 18222 504
13743 17416 384
13744 13821 672
13745 16358 843
13746 16270 986
13747 14019 139
13748 19322 30
13749 16580 762
13750 14290 576
13751 17710 498
13752 18587 877
13753 16514 667
13754 15846 853
13755 15736 412
13756 15434 548
13757 16714 599
13758 15049 702
13759 15278 123
13760 13772 915
13761 16818 4
13762 13923 734
13763 15556 167
13764 17961 441
13765 19197 471
13766 16194 976
13767 16920 996
13768 18755 132
13769 13882 878
13770 15263 929
13771 18822 227
13772 17129 749
13773 15741 249
13774 16974 429
13775 14872 853
13776 14300 610
13777 18405 765
13778 14851 890
13779 18161 747
13780 18410 327
13781 17683 741
13782 19369 283
13783 17141 837
13784 19054 153
13785 17622 935
13786 18872 737
13787 19469 989
13788 15545 433
13789 14596 127
13790 17763 782
13791 19002 194
13792 18751 794
13793 14664 495
13794 13850 5
13795 18258 637
13796 14468 708
13797 15021 258
13798 15847 369
13799 15496 85
13800 17015 990
13801 14738 158
13802 15062 965
13803 15047 36
13804 17913 351
13805 17411 592
13806 17911 187
13807 14579 792
13808 16813 605
13809 18667 535
13810 16535 615
13811 18395 918
13812 18017 9
13813 16509 892
13814 15990 264
13815 16225 20
13816 16761 977
13817 18739 617
13818 14318 921
13819 18313 525
13820 17972 973
13821 17234 915
13822 14895 936
13823 14950 620
13824 15390 392
13825 15792 853
13826 14182 60
13827 17162 709
13828 14035 964
13829 13896 730
13830 15420 146
13831 17898 811
13832 18814 357
13833 16724 790
13834 15167 15
13835 16144 134
13836 15609 267
13837 18795 821
13838 17858 135
13839 15283 647
13840 17720 697
13841 18425 93
13842 17883 120
13843 17939 302
13844 16514 306
13845 17474 922
13846 19098 857
13847 15722 159
13848 16310 43
13849 17096 535
13850 17464 879
13851 15800 420
13852 19493 124
13853 18477 599
13854 18507 40
13855 17851 870
13856 18116 631
13857 18044 590
13858 17338 989
13859 18776 801
13860 18747 95
13861 17802 396
13862 18805 265
13863 19336 284
13864 15980 653
13865 14927 499
13866 18443 3
13867 18431 441
13868 18151 162
13869 16260 52
13870 19448 686
13871 19299 176
13872 15802 754
13873 15121 541
13874 16472 409
13875 17724 842
13876 16521 16
13877 13946 889
13878 19086 650
13879 14432 504
13880 19208 486
13881 14847 874
13882 16046 344
13883 15153 709
13884 16840 727
13885 18495 146
13886 18412 594
13887 16740 740
13888 15537 234
13889 16450 503
13890 19269 621
13891 15396 410
13892 17430 506
13893 18614 593
13894 15670 973
13895 16409 14
13896 15357 472
13897 14562 151
13898 13908 107
13899 17011 325
13900 14464 378
13901 14402 678
13902 14983 42
13903 16557 596
13904 15601 651
13905 17479 864
13906 17304 223
13907 17168 908
13908 17287 85
13909 15112 139
13910 16557 506
13911 17849 739
13912 14033 561
13913 14320 927
13914 18036 855
13915 14062 381
13916 14140 909
13917 16496 551
13918 16836 949
13919 16826 739
13920 14890 56
13921 17315 112
13922 15038 934
13923 14344 655
13924 17620 120
13925 19010 402
13926 16900 263
13927 14364 826
13928 16658 855
13929 18122 335
13930 18625 729
13931 14960 998
13932 14876 975
13933 13951 115
13934 17778 665
13935 14963 318
13936 17507 716
13937 16744 815
13938 14147 98
13939 18558 315
13940 17747 605
13941 15527 74
13942 18111 735
13943 18180 147
13944 15417 764
13945 17053 332
13946 16570 206
13947 19391 50
13948 15098 685
13949 14052 971
13950 16805 569
13951 16954 696
13952 15068 913
13953 17281 668
13954 17533 408
13955 18679 519
13956 15759 42
13957 15834 470
13958 18343 403
13959 16147 836
13960 14577 522
13961 16670 240
13962 15814 43
13963 19210 690
13964 17907 823
13965 16435 231
13966 15439 433
13967 18265 800
13968 14739 172
13969 17687 227
13970 16291 780
13971 14987 784
13972 17724 326
13973 19484 613
13974 14145 494
13975 18514 803
13976 15079 576
13977 16529 118
13978 17026 924
13979 17395 829
13980 16923 522
13981 17275 115
13982 19140 143
13983 15408 627
13984 15252 688
13985 14754 373
13986 16578 964
13987 16366 337
13988 17526 945
13989 15717 554
13990 15666 367
13991 16534 289
13992 19457 695
13993 18949 240
13994 16961 420
13995 14346 505
13996 14532 24
13997 17655 289
13998 14599 993
13999 17645 155
14000 18543 826
14001 16263 8
14002 14018 403
14003 15600 898
14004 16374 184
14005 15896 786
14006 17602 737
14007 15329 248
14008 17031 854
14009 19405 757
14010 14142 263
14011 19231 450
14012 18274 578
14013 17322 486
14014 19217 24
14015 16405 844
14016 17510 171
14017 14911 699
14018 16452 908
14019 16370 710
14020 16161 884
14021 15751 775
14022 18514 801
14023 17668 259
14024 17106 800
14025 17526 818
14026 17646 730
14027 15454 753
14028 17372 527
14029 15150 226
14030 14134 376
14031 19233 962
14032 14115 857
14033 16039 303
14034 14568 813
14035 14839 190
14036 17645 868
14037 17237 130
14038 17302 186
14039 16841 665
14040 17724 383
14041 17731 59
14042 15345 246
14043 16059 960
14044 17043 573
14045 18130 518
14046 14833 77
14047 18532 438
14048 14258 389
14049 15574 8
14050 19162 442
14051 15139 397
14052 14544 369
14053 17071 269
14054 17656 407
14055 15936 410
14056 19356 442
14057 16600 58
14058 16793 207
14059 14507 325
14060 16118 202
14061 19264 439
14062 18051 961
14063 16915 543
14064 15917 569
14065 15404 833
14066 16116 828
14067 17124 76
14068 18581 546
14069 18952 266
14070 15516 991
14071 19051 227
14072 15402 946
14073 16898 171
14074 18408 259
14075 14464 334
14076 19270 790
14077 18391 809
14078 14117 831
14079 17439 800
14080 15727 604
14081 14226 3
14082 15911 875
14083 15155 121
14084 14695 329
14085 18072 872
14086 18320 776
14087 15892 498
14088 14598 776
14089 16059 161
14090 15992 90
14091 15201 335
14092 16527 348
14093 18384 132
14094 14106 28
14095 14388 883
14096 15045 154
14097 16163 750
14098 15434 531
14099 14619 845
14100 15118 514
14101 18798 455
14102 16892 548
14103 18930 963
14104 14949 515
14105 15401 393
14106 15987 787
14107 14325 364
14108 19452 856
14109 18141 769
14110 15265 531
14111 19003 698
14112 14678 487
14113 15114 943
14114 17452 244
14115 17343 240
14116 15887 609
14117 17903 999
14118 15199 596
14119 16839 888
14120 17238 669
14121 14483 12
14122 17834 604
14123 15600 921
14124 16095 366
14125 17611 558
14126 14336 334
14127 14462 990
14128 16212 623
14129 18592 68
14130 14357 223
14131 17358 455
14132 15694 483
14133 17401 105
14134 16561 478
14135 16095 73
14136 15584 700
14137 17121 309
14138 17783 880
14139 18524 944
14140 17709 625
14141 18280 512
14142 15209 724
14143 14455 947
14144 14298 457
14145 14946 9
14146 19342 58
14147 14580 641
14148 17158 991
14149 15721 340
14150 16245 667
14151 15691 317
14152 17855 46
14153 14568 797
14154 16700 326
14155 18096 143
14156 16231 20
14157 18503 736
14158 14697 986
14159 15827 275
14160 17172 116
14161 16288 27
14162 16185 24
14163 16672 957
14164 14661 867
14165 18014 367
14166 15709 3
14167 18010 481
14168 18850 91
14169 16464 643
14170 16058 203
14171 17347 34
14172 18932 850
14173 16756 176
14174 16124 207
14175 18595 698
14176 15310 716
14177 19038 359
14178 15040 910
14179 18818 854
14180 15923 366
14181 19453 745
14182 17105 372
14183 15990 391
14184 15808 702
14185 14503 934
14186 19453 906
14187 15892 822
14188 15501 972
14189 17369 40
14190 17014 14
14191 15190 569
14192 17788 923
14193 17790 975
14194 16727 440
14195 17129 969
14196 18080 821
14197 16230 839
14198 17514 780
14199 16079 8
14200 19277 303
14201 19211 755
14202 16195 769
14203 18815 469
14204 16536 491
14205 19201 929
14206 17536 106
14207 18104 547
14208 15382 989
14209 15878 25
14210 17225 950
14211 19180 948
14212 15905 45
14213 19473 48
14214 17768 655
14215 14450 103
14216 17588 678
14217 18797 623
14218 15726 165
14219 18926 410
14220 17726 376
14221 17667 830
14222 18248 70
14223 18159 985
14224 16336 847
14225 19462 790
14226 18777 646
14227 16582 132
14228 17898 863
14229 17307 581
14230 19311 833
14231 18670 924
14232 18314 56
14233 15391 807
14234 15098 273
14235 14560 177
14236 18188 694
14237 15576 101
14238 15730 408
14239 19318 675
14240 15701 111
14241 14594 899
14242 19034 341
14243 16910 453
14244 18030 568
14245 18193 313
14246 15057 53
14247 15892 885
14248 14820 496
14249 14827 357
14250 18986 239
14251 17644 567
14252 19165 927
14253 15692 345
14254 18803 176
14255 16754 851
14256 18652 335
14257 17882 806
14258 14317 986
14259 14596 330
14260 15113 901
14261 19279 356
14262 14971 389
14263 18212 51
14264 16645 598
14265 17102 132
14266 16544 571
14267 18168 369
14268 15575 428
14269 18933 488
14270 19083 966
14271 15883 67
14272 14587 607
14273 14775 328
14274 16469 314
14275 15056 751
14276 16767 590
14277 18369 703
14278 16226 175
14279 16868 333
14280 18482 33
14281 17278 265
14282 17456 895
14283 16545 138
14284 16404 639
14285 15383 664
14286 18748 69
14287 17043 378
14288 15319 483
14289 15357 654
14290 18348 997
14291 17240 920
14292 15769 259
14293 17420 135
14294 18085 816
14295 18107 307
14296 19280 914
14297 17057 404
14298 16476 890
14299 15510 138
14300 18759 137
14301 15733 778
14302 17118 380
14303 15051 854
14304 15313 279
14305 18251 195
14306 15197 140
14307 19426 203
14308 15933 449
14309 18429 294
14310 14673 159
14311 17604 272
14312 18138 903
14313 17650 521
14314 18615 271
14315 15466 904
14316 16201 175
14317 17008 778
14318 19288 792
14319 18278 3
14320 18886 94
14321 19033 883
14322 18092 171
14323 15468 127
14324 15668 720
14325 18735 511
14326 19366 176
14327 17103 216
14328 19228 470
14329 17918 342
14330 15054 244
14331 17517 706
14332 16613 159
14333 18908 417
14334 19151 812
14335 15727 302
14336 14555 688
14337 18972 249
14338 18869 128
14339 15832 415
14340 15654 843
14341 17284 927
14342 17842 865
14343 16736 841
14344 18682 481
14345 17712 694
14346 18292 997
14347 15952 235
14348 16449 981
14349 18924 701
14350 19000 428
14351 17223 959
14352 15743 917
14353 14389 281
14354 16941 450
14355 18721 511
14356 18061 666
14357 16514 728
14358 17979 363
14359 15822 30
14360 14611 348
14361 16587 135
14362 17101 843
14363 17763 760
14364 17368 758
14365 18266 114
14366 18789 759
14367 16749 550
14368 15732 570
14369 18015 22
14370 15991 738
14371 19481 68
14372 17080 446
14373 17591 630
14374 17087 216
14375 15667 659
14376 16656 255
14377 17455 139
14378 15183 573
14379 18860 690
14380 17049 173
14381 17313 256
14382 17835 17
14383 14856 604
14384 16086 873
14385 15316 194
14386 17949 75
14387 17316 539
14388 18210 867
14389 18742 221
14390 17644 600
14391 15062 932
14392 14558 818
14393 14719 62
14394 16266 519
14395 15896 376
14396 16895 534
14397 17609 326
14398 17256 485
14399 18806 248
14400 19249 810
14401 19049 737
14402 14485 65
14403 14927 496
14404 17681 219
14405 18616 145
14406 18529 984
14407 17378 483
14408 17651 622
14409 16155 241
14410 14491 686
14411 14500 217
14412 16408 551
14413 14833 457
14414 16124 787
14415 15444 184
14416 17083 728
14417 18578 522
14418 18275 150
14419 17083 960
14420 16546 620
14421 15426 970
14422 14708 279
14423 19268 763
14424 17111 621
14425 16952 187
14426 16926 171
14427 17240 457
14428 19319 174
14429 16367 559
14430 15825 826
14431 14666 717
14432 16712 910
14433 17299 733
14434 19439 776
14435 16827 298
14436 14742 534
14437 15134 629
14438 14821 240
14439 17975 22
14440 16401 828
14441 19340 872
14442 17735 472
14443 18214 767
14444 17488 632
14445 16577 456
14446 16040 856
14447 17005 596
14448 19297 432
14449 15070 112
14450 17740 14
14451 15262 475
14452 15099 391
14453 18146 967
14454 19477 226
14455 14999 81
14456 15243 896
14457 17883 607
14458 14499 84
14459 14507 393
14460 16698 487
14461 19194 319
14462 17659 134
14463 16248 984
14464 18201 838
14465 15630 855
14466 15844 24
14467 17903 237
14468 15068 92
14469 15272 10
14470 18546 44
14471 17878 328
14472 18456 765
14473 16971 447
14474 16295 644
14475 16344 684
14476 15185 211
14477 16569 955
14478 15173 402
14479 19344 827
14480 17034 426
14481 17140 412
14482 15697 595
14483 18585 161
14484 19039 993
14485 15364 651
14486 16017 837
14487 15151 521
14488 18597 154
14489 16858 804
14490 17622 111
14491 17217 836
14492 19105 506
14493 17693 689
14494 15732 362
14495 17211 538
14496 16654 900
14497 17032 989
14498 18120 921
14499 16137 780
14500 16009 58
14501 15942 789
14502 16397 156
14503 14742 818
14504 16368 116
14505 16416 312
14506 16502 350
14507 14669 788
14508 16998 780
14509 18636 193
14510 16759 873
14511 18723 409
14512 16008 381
14513 17827 642
14514 17692 947
14515 19144 993
14516 15039 275
14517 18517 267
14518 15309 832
14519 18380 352
14520 18647 932
14521 18842 878
14522 18942 698
14523 18979 452
14524 17454 685
14525 18283 36
14526 15510 61
14527 16830 793
14528 15372 965
14529 17338 69
14530 16718 925
14531 17942 129
14532 15604 844
14533 17888 386
14534 17606 134
14535 18831 235
14536 19248 522
14537 14695 973
14538 15609 113
14539 18109 98
14540 18807 955
14541 14546 582
14542 18956 467
14543 17555 210
14544 17931 341
14545 19083 439
14546 18023 523
14547 18001 662
14548 16794 858
14549 18661 633
14550 16888 853
14551 17093 444
14552 17274 658
14553 18456 288
14554 19359 272
14555 15611 111
14556 14649 564
14557 17013 362
14558 18402 848
14559 15136 700
14560 15726 757
14561 19443 362
14562 18502 938
14563 17561 175
14564 19145 838
14565 15573 839
14566 18693 53
14567 18852 199
14568 17496 864
14569 16242 975
14570 15513 31
14571 18214 687
14572 17651 461
14573 16027 350
14574 15356 960
14575 17479 343
14576 19303 63
14577 14909 485
14578 18400 684
14579 14905 886
14580 16260 877
14581 16106 64
14582 18387 416
14583 18047 892
14584 14874 639
14585 18451 496
14586 19107 898
14587 19235 763
14588 15166 955
14589 18232 904
14590 19373 935
14591 15309 842
14592 16777 739
14593 15778 455
14594 15274 165
14595 14817 432
14596 17351 550
14597 15757 467
14598 18623 24
14599 19093 962
14600 18585 511
14601 18652 626
14602 14805 694
14603 18227 30
14604 17629 88
14605 17433 945
14606 15232 169
14607 15668 262
14608 19219 995
14609 15756 8
14610 17325 530
14611 16056 231
14612 17129 386
14613 18151 952
14614 16054 122
14615 17741 756
14616 17376 199
14617 17999 949
14618 14911 337
14619 15545 698
14620 18492 309
14621 14751 775
14622 17277 745
14623 17061 331
14624 16149 800
14625 18881 270
14626 14833 742
14627 15186 118
14628 17587 140
14629 17955 415
14630 17944 571
14631 15748 141
14632 17280 234
14633 16016 669
14634 18110 743
14635 18758 578
14636 17554 314
14637 15392 44
14638 14828 938
14639 15166 155
14640 19181 628
14641 18335 453
14642 19319 345
14643 18882 701
14644 17421 556
14645 19377 271
14646 16044 923
14647 17962 864
14648 15573 899
14649 17297 136
14650 17273 66
14651 17057 830
14652 14744 795
14653 16153 774
14654 15277 477
14655 17131 666
14656 19012 548
14657 17110 155
14658 17117 587
14659 17461 247
14660 18341 714
14661 16928 792
14662 16303 960
14663 14826 49
14664 18650 393
14665 17906 722
14666 16506 771
14667 16405 174
14668 18429 307
14669 16205 97
14670 19242 124
14671 18448 395
14672 17287 264
14673 18311 846
14674 17344 330
14675 16621 880
14676 16628 531
14677 15380 792
14678 18230 742
14679 18605 955
14680 15658 423
14681 17295 825
14682 15066 153
14683 15676 840
14684 19304 1000
14685 17110 722
14686 15968 388
14687 15432 330
14688 16944 910
14689 18393 692
14690 15983 879
14691 16529 603
14692 15178 606
14693 14977 802
14694 15180 987
14695 14911 806
14696 15256 900
14697 16743 739
14698 18073 243
14699 16470 648
14700 16173 134
14701 14781 118
14702 16501 403
14703 14920 878
14704 17809 991
14705 15931 440
14706 17536 119
14707 14810 313
14708 18749 98
14709 15378 285
14710 15887 402
14711 17455 268
14712 19435 390
14713 15438 228
14714 18152 830
14715 17781 70
14716 18670 224
14717 18616 827
14718 19052 840
14719 15425 18
14720 15651 407
14721 17988 260
14722 16660 214
14723 18908 704
14724 16852 25
14725 19395 422
14726 19270 160
14727 17367 194
14728 16387 725
14729 18250 640
14730 19285 677
14731 18871 97
14732 18458 483
14733 14937 363
14734 15356 645
14735 16345 725
14736 17777 477
14737 17599 848
14738 18916 796
14739 18253 181
14740 17206 176
14741 16130 350
14742 15574 791
14743 19109 700
14744 17385 295
14745 17404 294
14746 16937 892
14747 15614 973
14748 15336 503
14749 18324 242
14750 18995 71
14751 15512 63
14752 19087 140
14753 18235 432
14754 16525 902
14755 17816 860
14756 17791 243
14757 16977 852
14758 16111 331
14759 19284 520
14760 17164 70
14761 14947 30
14762 18557 297
14763 18525 651
14764 17104 107
14765 17099 187
14766 16012 220
14767 16381 221
14768 16415 189
14769 17346 221
14770 17058 481
14771 15694 206
14772 15472 969
14773 19291 355
14774 15879 445
14775 19158 150
14776 15715 438
14777 19039 656
14778 17465 618
14779 17391 589
14780 14823 269
14781 14865 84
14782 18176 726
14783 17088 592
14784 19280 432
14785 15747 822
14786 18902 135
14787 15510 543
14788 15082 362
14789 15983 206
14790 14856 734
14791 15716 603
14792 16869 568
14793 16511 966
14794 19341 494
14795 17074 52
14796 19310 1000
14797 16740 409
14798 15279 883
14799 15474 560
14800 17566 538
14801 15309 859
14802 19493 601
14803 15659 646
14804 18598 752
14805 17261 375
14806 17388 5
14807 17172 346
14808 14856 608
14809 18221 65
14810 16628 970
14811 18166 167
14812 15741 154
14813 16179 125
14814 16987 82
14815 19117 772
14816 15390 399
14817 15485 354
14818 18925 831
14819 16480 637
14820 17939 970
14821 16218 617
14822 16444 612
14823 15207 582
14824 15724 661
14825 18641 857
14826 17303 565
14827 15809 88
14828 15227 811
14829 15012 675
14830 18704 136
14831 18909 223
14832 18172 835
14833 15518 235
14834 14995 480
14835 16329 20
14836 15241 924
14837 17448 238
14838 17588 902
14839 17722 35
14840 18104 796
14841 14902 970
14842 16822 673
14843 19070 537
14844 18784 687
14845 14979 835
14846 17286 346
14847 15683 617
14848 15282 395
14849 15710 90
14850 16774 766
14851 15953 18
14852 15354 22
14853 19450 814
14854 17896 196
14855 16294 226
14856 17544 554
14857 16809 396
14858 18247 862
14859 18785 265
14860 18870 327
14861 15604 525
14862 15643 505
14863 17951 699
14864 15254 745
14865 16889 449
14866 16232 605
14867 17463 95
14868 17292 218
14869 17224 708
14870 15840 669
14871 15300 382
14872 16276 663
14873 15072 506
14874 15882 607
14875 16690 736
14876 15758 640
14877 19084 655
14878 17733 236
14879 17254 1000
14880 18013 909
14881 18693 128
14882 14959 368
14883 18304 455
14884 16315 646
14885 17494 974
14886 18339 695
14887 16625 838
14888 17781 969
14889 16805 171
14890 15158 306
14891 16363 943
14892 19438 807
14893 15857 879
14894 17796 391
14895 17485 135
14896 16954 177
14897 15943 353
14898 19092 41
14899 17882 443
14900 18651 795
14901 19194 288
14902 15120 191
14903 19405 362
14904 16087 437
14905 16228 407
14906 17975 948
14907 15166 778
14908 17014 134
14909 16896 400
14910 17319 912
14911 15759 307
14912 19418 625
14913 17057 201
14914 17887 732
14915 16382 687
14916 18989 46
14917 16704 353
14918 17209 890
14919 15111 243
14920 15569 457
14921 18587 358
14922 18809 257
14923 19105 117
14924 15809 741
14925 18327 136
14926 16772 272
14927 17398 170
14928 16882 668
14929 17046 170
14930 17730 813
14931 17780 365
14932 19415 942
14933 15445 684
14934 18460 518
14935 17436 208
14936 19419 282
14937 16366 810
14938 17744 385
14939 15440 342
14940 17451 661
14941 18146 129
14942 15339 25
14943 18890 544
14944 16204 637
14945 18946 858
14946 17074 470
14947 15213 782
14948 17641 126
14949 17163 831
14950 16108 104
14951 15247 1
14952 15182 931
14953 18654 469
14954 17140 95
14955 16036 511
14956 18088 784
14957 16982 439
14958 19437 395
14959 15226 46
14960 16124 456
14961 16247 910
14962 15623 651
14963 18842 489
14964 16302 714
14965 17325 552
14966 18831 533
14967 18888 307
14968 15344 492
14969 18185 234
14970 19378 678
14971 15568 668
14972 15053 911
14973 15434 17
14974 18117 527
14975 17126 90
14976 18878 708
14977 16293 924
14978 16739 739
14979 17677 404
14980 16429 867
14981 16671 35
14982 19052 91
14983 16398 866
14984 19391 700
14985 16418 85
14986 16828 403
14987 16853 43
14988 17155 783
14989 18684 919
14990 16169 573
14991 15186 38
14992 17994 424
14993 18791 180
14994 16579 7
14995 17177 962
14996 17676 405
14997 19203 444
14998 18033 413
14999 15530 773
15000 16740 73
15001 16233 471
15002 18967 48
15003 15527 544
15004 16782 853
15005 16180 750
15006 15382 308
15007 15865 649
15008 16055 182
15009 15395 532
15010 16046 348
15011 17012 638
15012 19390 292
15013 15626 461
15014 16498 282
15015 15761 38
15016 15307 552
15017 16220 255
15018 18098 598
15019 16502 804
15020 18798 627
15021 15060 671
15022 18657 697
15023 15541 62
15024 16591 747
15025 16168 525
15026 15820 672
15027 15659 197
15028 16975 436
15029 18840 946
15030 18664 991
15031 16458 793
15032 18264 743
15033 18088 292
15034 16997 771
15035 17299 645
15036 15389 937
15037 19186 220
15038 18785 434
15039 16255 675
15040 18797 65
15041 15512 880
15042 17356 562
15043 18232 862
15044 17753 640
15045 18463 421
15046 15885 181
15047 19029 798
15048 18427 326
15049 15538 736
15050 18595 947
15051 16500 136
15052 16384 738
15053 17874 409
15054 15111 610
15055 19049 588
15056 17646 961
15057 16865 338
15058 19016 701
15059 16600 715
15060 18862 313
15061 16893 941
15062 16251 214
15063 15985 582
15064 16845 562
15065 16865 257
15066 17859 745
15067 18847 419
15068 17300 755
15069 15354 204
15070 18228 611
15071 17712 643
15072 17880 278
15073 16691 585
15074 16078 150
15075 17920 378
15076 15421 479
15077 17904 604
15078 17090 450
15079 15392 815
15080 17648 876
15081 16263 841
15082 18306 482
15083 18933 204
15084 18467 574
15085 17318 528
15086 15374 189
15087 16141 527
15088 19500 426
15089 18798 411
15090 16826 86
15091 16572 670
15092 19498 253
15093 19245 833
15094 18819 196
15095 17093 113
15096 16233 8
15097 17558 450
15098 19239 656
15099 15181 124
15100 15275 94
15101 16364 630
15102 18979 356
15103 16348 378
15104 17914 591
15105 17044 239
15106 19474 110
15107 16349 500
15108 17758 936
15109 15422 654
15110 19396 60
15111 16853 401
15112 15542 330
15113 18107 987
15114 18265 201
15115 15781 69
15116 16073 712
15117 18819 274
15118 16960 6
15119 15579 991
15120 16315 479
15121 19155 22
15122 16230 634
15123 17764 817
15124 19201 514
15125 17334 306
15126 18499 900
15127 16513 639
15128 18330 263
15129 15942 764
15130 17786 885
15131 17508 751
15132 19405 565
15133 15358 362
15134 16542 847
15135 19001 481
15136 18431 991
15137 17092 82
15138 16124 933
15139 17769 440
15140 16090 994
15141 19082 339
15142 16746 384
15143 18704 1000
15144 16886 149
15145 15419 451
15146 15210 997
15147 18304 173
15148 16465 182
15149 19211 361
15150 16152 128
15151 17772 839
15152 16099 210
15153 18396 779
15154 16721 256
15155 19448 15
15156 18892 661
15157 18994 207
15158 17224 774
15159 16943 196
15160 16955 541
15161 15530 845
15162 17230 662
15163 17246 410
15164 17509 850
15165 18256 104
15166 15590 412
15167 15764 592
15168 19463 347
15169 16992 996
15170 18416 207
15171 19498 235
15172 18936 288
15173 17201 16
15174 15849 593
15175 18379 489
15176 15771 873
15177 18997 906
15178 18182 961
15179 15960 190
15180 16278 303
15181 15369 874
15182 16900 637
15183 16659 618
15184 18295 356
15185 18706 222
15186 16672 910
15187 18183 741
15188 17590 340
15189 15629 280
15190 16009 278
15191 15325 239
15192 16543 853
15193 15757 547
15194 17406 142
15195 16545 319
15196 16982 263
15197 16724 361
15198 18947 266
15199 17666 825
15200 16443 91
15201 15988 610
15202 18220 501
15203 18060 207
15204 16442 302
15205 17194 346
15206 16636 447
15207 18627 642
15208 16707 858
15209 17550 265
15210 18808 529
15211 17717 26
15212 18181 556
15213 15916 620
15214 18322 794
15215 18096 613
15216 18211 590
15217 17197 432
15218 19372 639
15219 18241 335
15220 16591 753
15221 16877 960
15222 15840 761
15223 19159 97
15224 18963 744
15225 18857 903
15226 18846 647
15227 18967 66
15228 17939 326
15229 15629 303
15230 19224 535
15231 18829 356
15232 17908 297
15233 16648 882
15234 18823 435
15235 16428 471
15236 15976 96
15237 17960 684
15238 18989 679
15239 16145 410
15240 18570 922
15241 17745 903
15242 15449 677
15243 18713 711
15244 17368 83
15245 19063 2
15246 17443 611
15247 17008 653
15248 17288 455
15249 17595 542
15250 19218 337
15251 18447 681
15252 15461 594
15253 16595 427
15254 15617 586
15255 17505 151
15256 19176 587
15257 15652 309
15258 16979 937
15259 15360 166
15260 19058 124
15261 16559 921
15262 16115 513
15263 15428 355
15264 15280 606
15265 16864 98
15266 18248 965
15267 15784 270
15268 16572 258
15269 15297 143
15270 15749 91
15271 16326 359
15272 19061 502
15273 16740 533
15274 17468 945
15275 19177 120
15276 15860 668
15277 18614 703
15278 17737 597
15279 16765 261
15280 17741 882
15281 16884 832
15282 17710 102
15283 17622 476
15284 19097 13
15285 17015 95
15286 17751 3
15287 18311 259
15288 18005 596
15289 18648 276
15290 18217 425
15291 17092 300
15292 18538 395
15293 17779 405
15294 16742 479
15295 16449 526
15296 19500 594
15297 16205 379
15298 16906 887
15299 18636 561
15300 16066 98
15301 18849 940
15302 18822 186
15303 17362 874
15304 18953 609
15305 19006 707
15306 16786 40
15307 17985 762
15308 16484 809
15309 15767 572
15310 16737 781
15311 19079 394
15312 18562 842
15313 15705 979
15314 15524 662
15315 17881 665
15316 18318 222
15317 17611 960
15318 16282 512
15319 18612 574
15320 18329 157
15321 18216 208
15322 19326 398
15323 17301 10
15324 16234 669
15325 16055 376
15326 18813 427
15327 18684 366
15328 18651 657
15329 16563 728
15330 15743 202
15331 15706 273
15332 16801 229
15333 16430 438
15334 17176 321
15335 17471 992
15336 17545 698
15337 18767 273
15338 16389 59
15339 19306 360
15340 15618 861
15341 18277 177
15342 15483 719
15343 18352 724
15344 18411 56
15345 15517 256
15346 18474 25
15347 17434 26
15348 18295 418
15349 18534 299
15350 19067 3
15351 17344 319
15352 15754 379
15353 17105 594
15354 17124 393
15355 18776 713
15356 16952 966
15357 15440 164
15358 17592 5
15359 16786 186
15360 16741 516
15361 18188 235
15362 16323 197
15363 15659 746
15364 18030 444
15365 19259 488
15366 17267 193
15367 16597 422
15368 19021 886
15369 18862 825
15370 17040 439
15371 19298 591
15372 18894 470
15373 19421 700
15374 16301 278
15375 16438 307
15376 18968 435
15377 19112 474
15378 17143 490
15379 17982 778
15380 17669 751
15381 18691 644
15382 18454 52
15383 18123 381
15384 18611 825
15385 17179 93
15386 15423 40
15387 16756 676
15388 17535 764
15389 17394 764
15390 18014 347
15391 16693 121
15392 18022 824
15393 18337 140
15394 16381 235
15395 15699 556
15396 15830 320
15397 16239 913
15398 16788 791
15399 16104 182
15400 17708 855
15401 19146 380
15402 16961 809
15403 17394 39
15404 16358 388
15405 17819 457
15406 16427 676
15407 17133 555
15408 18691 369
15409 17912 648
15410 16309 339
15411 15566 974
15412 16491 428
15413 17768 357
15414 16965 420
15415 16989 274
15416 19223 859
15417 17816 288
15418 18266 122
15419 17362 445
15420 18547 475
15421 18212 161
15422 18998 632
15423 18985 717
15424 15616 13
15425 18864 25
15426 18032 148
15427 16307 723
15428 18022 616
15429 18786 17
15430 15994 738
15431 19389 461
15432 16496 861
15433 16493 21
15434 18331 340
15435 18709 730
15436 15867 407
15437 17504 89
15438 16948 975
15439 18000 527
15440 18499 652
15441 18818 905
15442 17975 417
15443 18157 412
15444 16652 337
15445 18017 993
15446 17670 75
15447 19140 218
15448 18631 769
15449 18699 392
15450 16032 853
15451 15613 122
15452 18974 640
15453 16719 524
15454 16489 85
15455 16045 60
15456 19235 519
15457 16497 97
15458 17204 476
15459 17798 842
15460 17027 64
15461 18378 689
15462 18463 238
15463 16208 859
15464 18940 992
15465 16928 983
15466 16945 760
15467 19072 709
15468 18335 156
15469 16000 650
15470 18079 870
15471 19246 195
15472 15753 549
15473 15964 220
15474 16579 515
15475 19392 937
15476 16815 357
15477 18923 916
15478 18583 434
15479 15688 185
15480 17750 130
15481 18252 583
15482 17040 922
15483 17711 999
15484 15984 291
15485 16609 976
15486 16820 219
15487 17448 679
15488 19211 468
15489 16286 939
15490 19003 935
15491 18876 310
15492 18214 77
15493 16177 698
15494 16047 335
15495 18326 183
15496 17454 852
15497 17957 98
15498 18036 410
15499 19453 190
15500 18404 482
15501 18641 38
15502 19164 604
15503 17273 986
15504 17042 469
15505 19432 565
15506 19081 662
15507 16556 280
15508 18212 416
15509 15941 227
15510 19193 406
15511 17780 998
15512 18110 6
15513 16043 749
15514 17924 465
15515 18137 606
15516 15990 685
15517 16738 142
15518 16266 823
15519 19449 28
15520 17718 944
15521 17223 75
15522 18123 330
15523 17228 221
15524 18813 869
15525 19035 963
15526 17812 272
15527 17816 285
15528 16574 761
15529 18976 743
15530 18067 919
15531 16675 218
15532 16740 922
15533 16067 558
15534 18788 684
15535 17281 763
15536 15661 752
15537 17269 784
15538 19227 660
15539 19103 994
15540 18458 926
15541 16736 404
15542 17910 862
15543 15656 369
15544 16853 487
15545 18880 930
15546 16458 541
15547 17748 354
15548 16382 109
15549 17031 164
15550 17225 450
15551 16899 174
15552 15869 883
15553 16289 694
15554 18573 516
15555 17488 391
15556 15728 290
15557 15616 601
15558 16109 813
15559 17605 38
15560 16606 748
15561 17997 233
15562 17385 601
15563 15893 533
15564 17751 642
15565 18575 274
15566 18500 495
15567 17364 414
15568 16404 250
15569 16195 314
15570 17096 390
15571 19497 442
15572 18795 206
15573 16279 66
15574 18487 279
15575 16153 550
15576 17141 937
15577 16549 40
15578 19052 623
15579 16177 68
15580 16190 21
15581 17597 581
15582 17642 559
15583 17211 853
15584 18742 64
15585 17012 907
15586 18744 707
15587 19260 412
15588 18596 235
15589 16612 625
15590 18110 508
15591 15842 6
15592 18263 186
15593 16637 574
15594 16896 297
15595 18175 838
15596 17845 719
15597 18910 140
15598 17516 754
15599 17800 623
15600 19489 679
15601 18897 577
15602 16934 127
15603 16402 691
15604 19211 904
15605 17586 744
15606 16159 389
15607 17645 129
15608 18045 256
15609 16084 512
15610 18424 649
15611 18844 717
15612 18664 162
15613 16637 397
15614 18170 146
15615 15887 810
15616 19229 87
15617 17019 29
15618 15619 532
15619 16204 806
15620 18963 272
15621 19289 439
15622 16709 328
15623 15943 69
15624 17497 820
15625 18340 79
15626 19063 531
15627 18729 967
15628 19366 591
15629 17890 798
15630 17077 148
15631 19186 243
15632 17247 599
15633 17363 278
15634 16202 99
15635 19164 528
15636 17161 223
15637 17942 413
15638 16199 612
15639 15830 990
15640 18546 291
15641 16573 411
15642 18146 427
15643 17530 608
15644 16914 864
15645 17071 32
15646 19302 648
15647 19167 346
15648 17201 148
15649 18561 134
15650 17888 558
15651 19467 274
15652 18244 141
15653 17942 341
15654 17473 185
15655 16265 827
15656 19083 96
15657 18689 434
15658 18171 311
15659 18771 42
15660 19130 499
15661 17358 614
15662 18060 212
15663 17563 639
15664 18034 381
15665 18898 935
15666 18093 446
15667 19406 1
15668 16129 890
15669 16536 454
15670 15683 478
15671 17567 536
15672 16221 939
15673 19459 777
15674 18871 906
15675 17680 188
15676 17506 443
15677 17287 627
15678 17515 779
15679 15763 716
15680 18422 469
15681 18275 961
15682 17161 758
15683 16863 482
15684 17967 357
15685 18532 40
15686 17890 814
15687 16549 59
15688 19349 246
15689 16305 71
15690 15972 43
15691 16528 224
15692 16190 916
15693 17189 89
15694 16770 861
15695 17598 440
15696 17920 962
15697 17754 368
15698 19446 118
15699 18372 279
15700 15719 180
15701 19221 581
15702 16109 493
15703 19314 24
15704 16791 447
15705 17305 661
15706 18836 986
15707 15921 798
15708 17831 413
15709 19220 231
15710 15877 697
15711 18821 728
15712 16492 173
15713 16723 79
15714 16998 753
15715 17541 576
15716 16257 969
15717 17758 206
15718 16061 94
15719 18918 742
15720 18410 696
15721 19210 125
15722 19386 145
15723 18925 795
15724 16077 259
15725 16814 422
15726 16029 387
15727 16778 946
15728 17083 10
15729 16343 847
15730 16860 925
15731 18374 894
15732 16428 100
15733 19298 900
15734 16090 74
15735 16770 876
15736 19197 519
15737 17596 129
15738 16731 921
15739 16705 542
15740 16278 218
15741 18708 398
15742 16137 859
15743 15938 70
15744 19190 965
15745 19246 268
15746 17424 426
15747 18377 594
15748 16666 738
15749 19239 827
15750 16807 364
15751 16128 478
15752 15833 969
15753 17565 395
15754 19424 514
15755 19198 688
15756 17860 727
15757 17181 486
15758 18786 624
15759 17119 411
15760 17975 432
15761 18173 514
15762 17180 292
15763 18141 298
15764 19253 738
15765 18742 474
15766 16773 226
15767 18039 410
15768 15846 5
15769 17253 332
15770 17959 233
15771 19171 902
15772 18443 841
15773 15922 514
15774 19033 146
15775 18933 700
15776 19405 638
15777 17390 930
15778 17104 961
15779 16402 136
15780 16009 683
15781 19242 923
15782 16159 406
15783 18218 949
15784 18678 550
15785 19437 675
15786 19450 573
15787 17869 227
15788 18664 258
15789 18160 862
15790 18785 298
15791 19287 778
15792 17240 52
15793 17385 957
15794 18947 580
15795 16520 368
15796 16953 767
15797 18608 44
15798 19008 908
15799 17578 273
15800 17379 116
15801 18347 426
15802 19116 5
15803 17636 700
15804 17194 437
15805 16467 347
15806 18631 612
15807 16891 230
15808 19301 983
15809 16671 661
15810 16595 950
15811 19467 411
15812 18948 611
15813 18728 627
15814 16133 567
15815 19017 403
15816 17396 360
15817 17476 214
15818 18175 727
15819 16057 735
15820 18903 14
15821 17975 896
15822 16745 267
15823 19384 619
15824 18877 729
15825 16820 319
15826 19495 808
15827 19145 385
15828 17263 66
15829 18834 372
15830 16952 26
15831 19448 854
15832 19291 720
15833 18405 994
15834 16038 221
15835 17829 575
15836 17457 484
15837 16508 235
15838 17343 462
15839 16557 927
15840 18373 738
15841 16815 871
15842 19430 506
15843 19355 579
15844 18847 119
15845 18221 551
15846 17108 427
15847 17804 315
15848 18198 172
15849 15983 862
15850 18971 894
15851 17828 460
15852 18520 145
15853 16440 318
15854 17814 288
15855 17617 582
15856 19429 932
15857 18037 722
15858 17530 431
15859 19141 302
15860 16122 169
15861 18002 958
15862 16092 105
15863 19119 349
15864 16618 797
15865 18970 127
15866 18475 166
15867 17275 396
15868 19247 159
15869 16259 145
15870 17273 251
15871 17567 399
15872 19488 541
15873 19210 632
15874 17316 37
15875 17031 970
15876 17574 849
15877 19268 251
15878 16534 523
15879 16027 181
15880 16487 986
15881 18304 203
15882 19151 765
15883 16835 473
15884 18963 513
15885 16438 499
15886 18253 938
15887 16431 202
15888 16291 800
15889 17914 126
15890 17394 737
15891 16065 249
15892 17804 995
15893 17061 837
15894 18731 244
15895 19234 973
15896 17606 708
15897 17616 799
15898 18893 93
15899 16665 766
15900 19443 909
15901 17135 208
15902 18171 347
15903 17583 679
15904 15954 445
15905 17109 77
15906 18205 593
15907 16382 598
15908 18601 276
15909 16741 386
15910 16835 20
15911 15949 231
15912 16776 941
15913 18357 289
15914 16885 798
15915 16259 932
15916 17012 555
15917 19066 949
15918 17861 695
15919 19254 894
15920 16992 836
15921 18997 228
15922 16380 392
15923 18099 785
15924 18109 949
15925 17365 929
15926 16532 464
15927 17803 374
15928 16683 994
15929 18062 951
15930 16809 92
15931 19356 304
15932 18468 549
15933 18832 730
15934 17014 675
15935 17206 506
15936 18578 155
15937 19348 669
15938 17981 531
15939 18535 808
15940 18014 945
15941 16943 291
15942 18064 128
15943 18172 368
15944 17590 254
15945 17344 364
15946 19184 121
15947 16255 430
15948 17195 860
15949 16609 425
15950 17920 9
15951 18607 592
15952 18021 320
15953 18863 740
15954 17563 10
15955 16946 390
15956 18694 628
15957 16527 200
15958 17211 384
15959 16421 236
15960 17169 14
15961 17652 794
15962 16971 688
15963 16235 185
15964 17585 674
15965 17880 359
15966 18028 697
15967 17237 500
15968 17618 631
15969 18512 335
15970 19385 6
15971 16419 449
15972 16826 810
15973 18146 537
15974 16610 73
15975 15977 232
15976 17454 321
15977 18856 460
15978 18730 540
15979 17485 567
15980 17302 459
15981 17649 771
15982 18378 363
15983 17471 573
15984 16100 121
15985 18043 216
15986 16273 806
15987 18537 206
15988 17077 123
15989 18864 862
15990 18048 879
15991 17704 576
15992 17491 262
15993 18144 930
15994 18276 783
15995 18654 359
15996 18825 1
15997 17800 307
15998 17241 777
15999 18980 904
16000 17406 298
16001 16650 837
16002 19125 641
16003 18496 895
16004 17311 583
16005 19414 89
16006 17001 350
16007 18789 515
16008 16913 611
16009 17611 781
16010 19294 49
16011 16987 12
16012 18072 487
16013 18468 699
16014 18399 839
16015 16299 304
16016 19152 476
16017 17006 242
16018 16909 543
16019 18251 966
16020 19440 925
16021 17158 717
16022 17104 665
16023 18200 291
16024 17853 961
16025 18258 843
16026 16510 7
16027 16603 610
16028 19461 832
16029 16573 343
16030 17716 762
16031 18731 41
16032 18660 650
16033 18820 469
16034 19073 109
16035 16354 79
16036 18068 531
16037 18340 757
16038 17411 786
16039 19255 399
16040 18292 21
16041 17800 481
16042 17149 62
16043 16296 321
16044 17587 549
16045 17411 956
16046 17448 261
16047 17214 657
16048 17281 505
16049 17984 747
16050 18992 117
16051 18614 181
16052 17034 625
16053 17806 657
16054 16640 939
16055 17423 238
16056 18347 29
16057 16540 876
16058 18522 795
16059 17555 117
16060 17598 813
16061 18183 694
16062 17236 807
16063 17204 112
16064 17885 280
16065 17323 693
16066 18394 381
16067 17330 275
16068 16615 814
16069 17569 713
16070 17565 762
16071 18683 301
16072 19470 512
16073 17271 113
16074 17927 862
16075 18427 803
16076 18810 215
16077 16209 21
16078 19349 205
16079 19152 316
16080 16355 343
16081 16810 47
16082 18101 282
16083 16904 564
16084 18781 716
16085 18951 426
16086 19010 583
16087 19364 217
16088 16212 771
16089 19165 845
16090 18197 384
16091 18190 499
16092 16736 59
16093 17084 673
16094 17620 895
16095 18290 537
16096 19283 820
16097 19365 505
16098 19318 889
16099 18878 767
16100 16185 743
16101 16277 488
16102 16154 734
16103 16418 750
16104 17023 900
16105 18675 884
16106 17750 126
16107 16970 398
16108 19320 629
16109 18588 767
16110 18486 753
16111 18849 874
16112 16304 440
16113 16498 480
16114 18180 332
16115 17267 722
16116 18656 871
16117 16389 164
16118 18626 728
16119 16237 708
16120 16326 607
16121 16343 439
16122 17741 898
16123 18930 341
16124 18765 525
16125 16364 961
16126 18318 53
16127 16157 250
16128 17891 909
16129 17808 807
16130 18130 188
16131 18323 772
16132 16601 181
16133 19380 611
16134 19204 759
16135 17701 852
16136 17495 800
16137 18195 317
16138 17827 79
16139 16640 187
16140 17901 380
16141 18265 346
16142 17964 775
16143 17412 707
16144 19310 790
16145 19057 885
16146 16960 501
16147 16762 201
16148 18105 194
16149 17406 454
16150 16659 615
16151 18912 821
16152 17890 709
16153 19499 140
16154 19100 26
16155 17729 570
16156 18099 34
16157 17108 886
16158 16339 782
16159 17790 883
16160 18817 585
16161 19386 815
16162 16788 829
16163 17372 788
16164 19359 446
16165 17882 491
16166 16628 668
16167 18907 136
16168 18303 284
16169 18322 650
16170 16837 253
16171 18731 826
16172 18574 556
16173 17431 812
16174 16379 729
16175 19048 248
16176 19395 209
16177 18056 713
16178 17036 648
16179 16404 633
16180 18907 865
16181 17946 320
16182 17161 57
16183 19292 166
16184 18959 918
16185 18993 22
16186 19099 733
16187 16548 271
16188 18091 920
16189 16874 893
16190 17085 115
16191 17168 374
16192 16857 277
16193 18544 242
16194 18003 172
16195 16952 573
16196 16464 412
16197 17939 248
16198 16417 169
16199 19203 774
16200 16998 576
16201 16527 305
16202 18239 400
16203 17231 535
16204 19468 969
16205 16925 977
16206 16445 679
16207 16471 459
16208 17243 208
16209 16515 556
16210 17499 839
16211 18606 552
16212 16923 819
16213 16292 153
16214 17659 711
16215 19153 431
16216 16525 997
16217 17198 363
16218 18551 404
16219 18545 235
16220 18130 787
16221 16882 173
16222 16572 576
16223 18196 436
16224 17650 190
16225 18576 409
16226 18311 955
16227 17207 970
16228 18878 673
16229 19042 310
16230 18829 788
16231 18051 430
16232 16424 679
16233 18638 942
16234 18076 714
16235 17098 122
16236 18382 325
16237 18028 497
16238 16557 730
16239 16893 732
16240 16262 535
16241 16922 913
16242 18344 163
16243 19232 430
16244 18650 406
16245 19434 181
16246 19332 459
16247 18370 834
16248 17110 392
16249 17182 76
16250 18047 862
16251 18554 917
16252 18771 221
16253 17958 398
16254 17371 69
16255 18657 490
16256 18891 591
16257 16965 309
16258 18051 523
16259 19186 86
16260 16402 397
16261 18254 294
16262 19000 705
16263 19448 573
16264 17463 648
16265 16446 229
16266 17039 295
16267 17045 695
16268 18821 385
16269 16674 228
16270 18448 339
16271 18887 421
16272 16729 373
16273 16628 980
16274 17389 123
16275 17958 147
16276 18913 113
16277 16602 932
16278 16770 376
16279 16971 360
16280 18322 260
16281 19390 453
16282 16435 337
16283 18378 32
16284 19469 799
16285 18613 149
16286 18870 696
16287 18909 195
16288 17789 396
16289 19220 400
16290 17015 226
16291 16772 571
16292 17834 229
16293 17563 752
16294 16686 915
16295 19025 780
16296 17109 268
16297 17432 453
16298 17858 32
16299 18768 919
16300 18189 973
16301 19285 121
16302 19275 91
16303 17476 619
16304 17005 571
16305 19362 312
16306 17317 29
16307 18429 56
16308 16572 872
16309 18102 783
16310 17484 753
16311 17792 157
16312 16785 854
16313 19027 850
16314 17230 882
16315 16391 734
16316 17123 289
16317 17908 709
16318 17568 246
16319 18521 38
16320 18410 223
16321 19048 828
16322 19053 655
16323 18632 303
16324 18602 141
16325 16837 282
16326 18845 736
16327 19489 921
16328 18483 4
16329 17282 982
16330 19012 593
16331 16536 630
16332 17473 341
16333 18268 305
16334 17319 869
16335 18076 478
16336 16797 721
16337 18368 576
16338 17351 45
16339 18534 176
16340 19338 435
16341 18911 178
16342 16471 949
16343 19449 993
16344 16539 168
16345 17222 38
16346 16430 133
16347 17923 375
16348 17868 995
16349 18499 392
16350 16560 843
16351 16713 999
16352 18805 654
16353 18080 813
16354 19016 969
16355 16517 188
16356 18929 547
16357 19254 629
16358 18215 987
16359 18249 745
16360 16855 872
16361 18266 141
16362 17311 888
16363 16859 437
16364 17792 697
16365 17514 237
16366 19003 832
16367 18370 366
16368 17946 186
16369 17721 908
16370 17170 672
16371 18750 890
16372 17433 877
16373 16512 986
16374 16644 278
16375 17579 692
16376 17936 645
16377 17488 812
16378 17942 515
16379 17127 287
16380 18374 139
16381 19390 321
16382 17086 686
16383 18700 501
16384 17053 425
16385 17768 645
16386 17909 994
16387 18502 465
16388 16487 970
16389 17489 574
16390 16436 469
16391 19449 124
16392 17428 859
16393 16710 48
16394 19112 19
16395 16776 41
16396 19174 192
16397 18832 132
16398 19080 453
16399 16514 336
16400 19078 941
16401 17330 474
16402 18138 195
16403 16984 355
16404 18325 180
16405 19092 802
16406 19382 622
16407 16683 499
16408 17074 717
16409 18755 165
16410 17724 33
16411 16835 899
16412 18210 60
16413 18245 397
16414 19447 603
16415 16647 193
16416 18404 853
16417 19203 860
16418 18262 580
16419 17412 550
16420 16575 598
16421 16761 441
16422 19479 382
16423 16926 294
16424 19031 656
16425 18850 902
16426 17056 246
16427 16662 739
16428 18449 248
16429 16875 553
16430 17944 273
16431 17920 599
16432 18634 438
16433 18442 518
16434 17824 941
16435 19329 16
16436 18909 625
16437 17061 111
16438 18269 134
16439 18189 854
16440 19327 277
16441 18991 237
16442 17699 776
16443 19226 582
16444 17727 392
16445 16513 410
16446 17151 201
16447 18418 346
16448 17445 414
16449 17541 763
16450 17153 885
16451 17847 140
16452 17481 699
16453 18773 381
16454 16661 907
16455 18085 826
16456 16955 338
16457 19410 153
16458 18720 867
16459 18310 168
16460 18318 828
16461 18171 569
16462 17558 726
16463 18406 111
16464 18026 19
16465 16933 652
16466 16491 673
16467 16843 555
16468 18098 491
16469 16691 626
16470 18342 864
16471 19077 692
16472 17364 710
16473 16832 303
16474 17975 355
16475 19293 948
16476 16796 854
16477 19397 468
16478 16843 384
16479 18211 766
16480 18395 875
16481 16889 90
16482 17042 340
16483 18841 447
16484 17142 688
16485 18123 212
16486 16982 35
16487 16584 113
16488 17820 754
16489 18126 915
16490 18813 688
16491 19359 333
16492 17873 390
16493 19011 457
16494 16681 980
16495 19222 775
16496 17563 420
16497 18964 1000
16498 19423 100
16499 18492 982
16500 18091 888
16501 16744 238
16502 16839 747
16503 17030 828
16504 18482 651
16505 18759 196
16506 18454 699
16507 17862 535
16508 16976 53
16509 16599 765
16510 17837 220
16511 17937 700
16512 16884 248
16513 18501 354
16514 18547 193
16515 19374 344
16516 16521 410
16517 17624 913
16518 16605 35
16519 16988 200
16520 16773 674
16521 16773 500
16522 17033 948
16523 18433 697
16524 19361 876
16525 18407 520
16526 17864 720
16527 17485 949
16528 16924 603
16529 17492 194
16530 17397 252
16531 17744 352
16532 17113 901
16533 18191 86
16534 19011 631
16535 19407 702
16536 18741 66
16537 19128 705
16538 19415 240
16539 17721 576
16540 17977 901
16541 17441 663
16542 16850 614
16543 17041 683
16544 19489 209
16545 18786 798
16546 19485 405
16547 18021 712
16548 17720 699
16549 17270 587
16550 19219 854
16551 16983 602
16552 18005 969
16553 18857 260
16554 16993 531
16555 18231 451
16556 17141 945
16557 17979 415
16558 16952 65
16559 16696 416
16560 18956 567
16561 18470 324
16562 17327 736
16563 19241 3
16564 18739 88
16565 19210 149
16566 18124 118
16567 18287 802
16568 17280 868
16569 18836 941
16570 17669 96
16571 19432 540
16572 17131 555
16573 16600 271
16574 18416 362
16575 17430 9
16576 19172 400
16577 17963 371
16578 17478 116
16579 17131 663
16580 17408 569
16581 18189 849
16582 16745 488
16583 18904 32
16584 18792 721
16585 18603 817
16586 18082 834
16587 19468 520
16588 18020 233
16589 18003 676
16590 17322 986
16591 18212 829
16592 17025 219
16593 19456 189
16594 18435 805
16595 17551 216
16596 16625 622
16597 18228 311
16598 16691 345
16599 19077 459
16600 18306 730
16601 17657 114
16602 16688 956
16603 17389 198
16604 16740 970
16605 18852 124
16606 17911 5
16607 17052 485
16608 18520 193
16609 18413 311
16610 16935 769
16611 17716 540
16612 18760 605
16613 19031 581
16614 18350 431
16615 17725 663
16616 19101 323
16617 17493 854
16618 16817 488
16619 18927 826
16620 18674 182
16621 17859 653
16622 17093 199
16623 16815 934
16624 18158 253
16625 19046 861
16626 18747 752
16627 16695 9
16628 17595 750
16629 17691 291
16630 18999 667
16631 17492 883
16632 18819 784
16633 17261 648
16634 17529 261
16635 19436 815
16636 17464 492
16637 18855 180
16638 17304 286
16639 18357 876
16640 18252 978
16641 19053 145
16642 18904 881
16643 18266 887
16644 18381 676
16645 18409 938
16646 18253 87
16647 16809 628
16648 17266 519
16649 18128 465
16650 18778 627
16651 19373 965
16652 18359 625
16653 18689 907
16654 18832 358
16655 18789 95
16656 17106 36
16657 18456 782
16658 18419 867
16659 16720 337
16660 18416 718
16661 17970 592
16662 17774 902
16663 17106 179
16664 18172 194
16665 18263 208
16666 17744 476
16667 17488 825
16668 17288 970
16669 17830 811
16670 16877 437
16671 17352 641
16672 18015 901
16673 19414 526
16674 17859 622
16675 19028 880
16676 16751 332
16677 19402 897
16678 16830 61
16679 18321 287
16680 17856 153
16681 18804 503
16682 17101 813
16683 18808 464
16684 18931 853
16685 18870 669
16686 18437 440
16687 18798 801
16688 16780 497
16689 19015 739
16690 17237 450
16691 16786 899
16692 18719 932
16693 17150 681
16694 17429 894
16695 18140 653
16696 18409 656
16697 18342 656
16698 17332 85
16699 17544 697
16700 18044 194
16701 16737 973
16702 16866 4
16703 17575 366
16704 16771 395
16705 16982 377
16706 16987 832
16707 17879 229
16708 18895 217
16709 17258 643
16710 17760 325
16711 18007 170
16712 19487 795
16713 16797 455
16714 18529 292
16715 18340 626
16716 17832 216
16717 17567 988
16718 16992 200
16719 18409 524
16720 18041 219
16721 18599 667
16722 18779 923
16723 17846 363
16724 18543 200
16725 17403 880
16726 17302 677
16727 17221 877
16728 18873 141
16729 17703 881
16730 16886 385
16731 17094 186
16732 18322 12
16733 18485 306
16734 19336 750
16735 18869 419
16736 19435 441
16737 18915 295
16738 19221 990
16739 18021 398
16740 19254 576
16741 17214 661
16742 17870 659
16743 17488 99
16744 17540 203
16745 16883 605
16746 19250 75
16747 19031 889
16748 17177 457
16749 17843 122
16750 18598 472
16751 18889 244
16752 18482 292
16753 18603 825
16754 18229 20
16755 18088 938
16756 17483 42
16757 17983 719
16758 18877 31
16759 19186 623
16760 17846 414
16761 17547 133
16762 19034 141
16763 17466 455
16764 18006 65
16765 18723 910
16766 17856 670
16767 17211 377
16768 17209 932
16769 18029 441
16770 16979 379
16771 17954 443
16772 18255 224
16773 19017 649
16774 17320 165
16775 18373 460
16776 19082 512
16777 17891 223
16778 16955 370
16779 17263 15
16780 16874 746
16781 18722 126
16782 18092 393
16783 18774 136
16784 17377 337
16785 17298 785
16786 18515 257
16787 19335 725
16788 17513 337
16789 18885 454
16790 17435 680
16791 18996 161
16792 17411 242
16793 18015 416
16794 17956 863
16795 19346 465
16796 17056 968
16797 17971 444
16798 18398 644
16799 18294 587
16800 17426 365
16801 16989 491
16802 17829 130
16803 17475 79
16804 18752 303
16805 18765 522
16806 19319 703
16807 17558 112
16808 18654 116
16809 18090 188
16810 19213 918
16811 17005 979
16812 18606 613
16813 16950 974
16814 19175 270
16815 18819 393
16816 18812 477
16817 19023 516
16818 18529 516
16819 17335 105
16820 19011 41
16821 17078 567
16822 17644 976
16823 18319 249
16824 18357 62
16825 17352 244
16826 18047 167
16827 19399 357
16828 18263 618
16829 19108 525
16830 17696 574
16831 17707 185
16832 18548 556
16833 17768 55
16834 18147 165
16835 18270 272
16836 18002 653
16837 18233 92
16838 19127 962
16839 19495 481
16840 17501 702
16841 16972 247
16842 19483 680
16843 19291 923
16844 17673 450
16845 18082 725
16846 18622 451
16847 17071 513
16848 16922 622
16849 19249 925
16850 19073 802
16851 17010 651
16852 17712 214
16853 17515 580
16854 19283 870
16855 17815 714
16856 19387 442
16857 18142 794
16858 17295 513
16859 18955 251
16860 17177 813
16861 18653 856
16862 16899 571
16863 19006 572
16864 18241 471
16865 18893 992
16866 16977 673
16867 19431 564
16868 19269 346
16869 19111 63
16870 18951 255
16871 19317 341
16872 19098 923
16873 17416 985
16874 18964 22
16875 18947 986
16876 18302 935
16877 17647 632
16878 18197 883
16879 18099 806
16880 17821 379
16881 18336 238
16882 18971 161
16883 19233 437
16884 18271 463
16885 19123 536
16886 18339 74
16887 18449 585
16888 19008 158
16889 18574 699
16890 18402 449
16891 18919 465
16892 18383 303
16893 18386 835
16894 18389 846
16895 17858 756
16896 18691 689
16897 17134 229
16898 18566 162
16899 19141 582
16900 17244 56
16901 17633 113
16902 19322 531
16903 18970 513
16904 18466 722
16905 18784 459
16906 18279 618
16907 17986 496
16908 19470 284
16909 17816 538
16910 17616 482
16911 17808 707
16912 19371 770
16913 18093 727
16914 18074 190
16915 17742 299
16916 18267 137
16917 19067 84
16918 19073 778
16919 18862 523
16920 17160 670
16921 16926 458
16922 17674 894
16923 16987 974
16924 18940 351
16925 17483 307
16926 17764 655
16927 18621 424
16928 18853 619
16929 17167 506
16930 19131 610
16931 18261 474
16932 18676 770
16933 19244 290
16934 17150 330
16935 18875 404
16936 19491 264
16937 16973 528
16938 17352 889
16939 18081 771
16940 19116 54
16941 16944 319
16942 17942 441
16943 19400 79
16944 18929 875
16945 18528 572
16946 18345 58
16947 17121 592
16948 18995 183
16949 17563 877
16950 17440 323
16951 17874 708
16952 18334 32
16953 18981 545
16954 18991 812
16955 19114 616
16956 17898 435
16957 18214 935
16958 17153 776
16959 18497 275
16960 19365 575
16961 19256 555
16962 17001 421
16963 17664 86
16964 17705 971
16965 18310 138
16966 19469 923
16967 17495 939
16968 18948 366
16969 19013 586
16970 19325 17
16971 18791 539
16972 19067 11
16973 17449 355
16974 17646 84
16975 18614 161
16976 19435 442
16977 17151 692
16978 17619 76
16979 19348 529
16980 17462 33
16981 17001 405
16982 17044 651
16983 19374 657
16984 17906 775
16985 19272 397
16986 17631 759
16987 18407 371
16988 19462 397
16989 19470 869
16990 18667 341
16991 18343 230
16992 17088 14
16993 19460 967
16994 17187 308
16995 19375 836
16996 17182 134
16997 19227 670
16998 19197 908
16999 17270 51
17000 17716 377
17001 18036 343
17002 17566 1
17003 17078 771
17004 18577 612
17005 18418 477
17006 19060 144
17007 19250 740
17008 18208 558
17009 19206 666
17010 18489 972
17011 18296 309
17012 18351 145
17013 19455 233
17014 19412 391
17015 18446 548
17016 19235 944
17017 17259 732
17018 17871 457
17019 17784 10
17020 19192 380
17021 18595 118
17022 17696 790
17023 19164 583
17024 17897 775
17025 17688 197
17026 18667 306
17027 18645 441
17028 17859 477
17029 18221 433
17030 18110 110
17031 17483 761
17032 19023 912
17033 17799 155
17034 18601 520
17035 18927 357
17036 17357 361
17037 17185 514
17038 18664 54
17039 17235 605
17040 18215 460
17041 17325 626
17042 19303 650
17043 19250 967
17044 17118 1000
17045 18920 315
17046 19002 846
17047 17453 918
17048 17567 611
17049 17885 975
17050 17809 724
17051 18333 321
17052 19409 74
17053 17305 378
17054 19113 948
17055 18127 720
17056 18937 175
17057 18538 943
17058 17248 148
17059 18358 462
17060 17344 440
17061 19274 195
17062 19075 404
17063 17467 633
17064 18117 718
17065 18023 573
17066 17934 196
17067 18798 513
17068 18375 26
17069 17182 512
17070 18631 605
17071 19302 969
17072 17994 20
17073 18193 865
17074 19183 940
17075 19435 675
17076 19073 19
17077 18062 722
17078 19193 228
17079 18678 226
17080 17903 39
17081 17587 808
17082 18770 149
17083 17271 34
17084 18525 199
17085 18127 138
17086 19326 606
17087 18515 931
17088 18956 804
17089 18580 102
17090 19070 876
17091 17827 180
17092 18974 26
17093 18797 495
17094 19195 129
17095 17979 367
17096 18022 505
17097 17598 690
17098 17622 782
17099 18000 227
17100 18670 368
17101 17456 704
17102 18390 763
17103 17781 84
17104 17205 398
17105 17290 621
17106 19262 237
17107 18264 880
17108 18856 748
17109 18161 306
17110 17983 165
17111 18665 88
17112 17830 545
17113 18780 625
17114 19029 15
17115 18546 917
17116 17475 319
17117 18447 117
17118 18276 164
17119 18137 452
17120 19198 549
17121 18736 394
17122 18614 484
17123 18489 611
17124 17403 102
17125 17360 250
17126 19229 288
17127 18434 750
17128 18315 245
17129 17743 272
17130 19455 348
17131 19116 488
17132 19412 555
17133 18736 186
17134 18101 982
17135 19420 829
17136 17819 26
17137 18341 801
17138 18297 917
17139 17780 635
17140 17638 171
17141 18981 359
17142 19463 822
17143 19154 853
17144 17545 88
17145 17248 951
17146 17210 272
17147 18847 752
17148 17302 784
17149 18395 591
17150 18341 997
17151 17455 47
17152 18414 55
17153 18842 357
17154 17460 430
17155 19221 125
17156 18403 720
17157 18490 423
17158 17669 816
17159 18674 66
17160 17626 828
17161 18345 120
17162 19480 446
17163 17388 792
17164 18398 482
17165 17194 97
17166 19185 876
17167 19311 549
17168 18303 740
17169 18436 670
17170 19200 132
17171 18198 182
17172 17261 182
17173 17249 804
17174 18594 768
17175 19276 865
17176 18744 530
17177 19051 870
17178 17522 198
17179 18131 575
17180 19348 146
17181 19227 445
17182 17424 610
17183 18869 987
17184 18247 565
17185 18479 790
17186 18554 274
17187 18199 618
17188 17321 708
17189 17515 174
17190 18704 467
17191 17665 308
17192 19051 961
17193 18732 719
17194 19425 512
17195 18921 586
17196 17227 886
17197 18068 947
17198 17507 769
17199 18037 763
17200 18169 307
17201 18930 311
17202 18567 518
17203 18414 595
17204 18293 162
17205 18055 371
17206 17711 497
17207 17394 601
17208 17809 613
17209 18940 308
17210 18945 130
17211 18510 42
17212 19213 846
17213 19243 507
17214 17754 137
17215 18098 932
17216 18631 250
17217 18209 625
17218 18742 12
17219 18437 283
17220 18842 738
17221 19134 987
17222 19343 899
17223 17890 583
17224 18988 322
17225 18659 60
17226 18514 750
17227 19314 608
17228 19062 415
17229 17793 214
17230 17480 938
17231 18123 439
17232 18128 128
17233 18738 79
17234 18849 234
17235 17980 460
17236 17957 718
17237 17417 51
17238 19167 618
17239 18762 450
17240 18947 158
17241 18281 152
17242 18126 377
17243 19274 198
17244 17519 703
17245 18382 385
17246 17677 548
17247 18399 318
17248 18463 692
17249 18691 944
17250 19397 701
17251 18377 602
17252 18202 901
17253 18411 246
17254 19481 318
17255 17315 947
17256 17268 208
17257 17311 84
17258 18419 244
17259 18043 629
17260 19107 40
17261 19145 867
17262 18710 291
17263 17662 435
17264 18618 740
17265 17721 951
17266 18592 898
17267 18773 96
17268 17520 437
17269 17587 837
17270 18235 543
17271 18288 87
17272 18542 172
17273 17740 681
17274 17350 120
17275 18345 902
17276 17400 212
17277 18348 147
17278 19122 251
17279 17920 680
17280 17953 376
17281 17784 778
17282 19279 863
17283 18606 705
17284 17313 753
17285 17571 123
17286 18302 662
17287 18213 206
17288 19495 912
17289 18568 403
17290 18935 675
17291 19225 591
17292 18632 317
17293 19015 955
17294 17440 856
17295 18545 448
17296 18011 247
17297 19347 658
17298 18395 641
17299 19284 886
17300 18650 310
17301 18462 47
17302 17335 643
17303 18504 539
17304 18566 451
17305 17509 970
17306 17684 61
17307 18348 49
17308 17604 609
17309 17986 143
17310 18331 424
17311 19080 840
17312 18914 276
17313 17533 694
17314 17586 399
17315 19258 382
17316 18287 10
17317 18884 108
17318 18111 972
17319 18968 982
17320 17487 178
17321 17852 628
17322 19055 669
17323 18613 583
17324 17551 913
17325 18666 713
17326 17940 50
17327 19049 269
17328 19359 641
17329 19066 214
17330 18294 818
17331 17864 994
17332 17521 220
17333 17422 30
17334 18753 950
17335 17714 910
17336 17394 876
17337 18102 728
17338 18742 268
17339 17628 219
17340 18654 383
17341 19213 683
17342 19140 634
17343 18541 502
17344 18735 359
17345 18903 895
17346 18866 698
17347 18462 223
17348 17854 942
17349 17996 698
17350 18090 14
17351 18116 700
17352 18799 641
17353 18065 802
17354 17503 235
17355 17720 22
17356 18085 607
17357 19283 709
17358 17968 907
17359 17969 525
17360 19084 291
17361 17451 844
17362 18237 772
17363 18742 670
17364 19282 636
17365 18672 851
17366 19248 224
17367 17763 684
17368 17896 100
17369 19237 779
17370 17642 848
17371 18506 127
17372 18160 174
17373 18609 984
17374 17676 81
17375 18889 969
17376 19402 834
17377 18471 795
17378 17672 509
17379 18476 99
17380 18149 880
17381 18353 153
17382 17646 376
17383 18053 368
17384 18925 371
17385 18360 509
17386 17818 802
17387 19380 600
17388 18142 537
17389 18573 956
17390 17971 86
17391 17916 877
17392 17729 210
17393 19419 369
17394 18570 610
17395 18454 982
17396 19216 653
17397 18446 165
17398 18539 810
17399 18809 43
17400 17482 764
17401 18919 579
17402 18909 484
17403 19017 943
17404 18501 995
17405 17675 144
17406 17480 399
17407 19157 509
17408 18210 307
17409 18972 169
17410 18705 977
17411 19181 340
17412 18005 234
17413 17627 784
17414 18853 834
17415 18904 108
17416 17545 731
17417 19026 642
17418 18076 422
17419 18165 528
17420 18586 627
17421 17486 986
17422 18183 671
17423 18229 258
17424 18520 420
17425 17507 825
17426 17885 408
17427 18669 474
17428 18483 584
17429 18740 243
17430 17892 237
17431 18029 630
17432 19442 578
17433 17725 372
17434 19427 786
17435 19247 486
17436 17560 896
17437 19207 985
17438 19236 253
17439 18369 331
17440 18101 34
17441 17828 783
17442 17742 383
17443 19314 184
17444 17536 857
17445 17886 279
17446 18951 229
17447 17563 89
17448 17555 527
17449 18330 570
17450 17680 469
17451 18397 331
17452 18710 312
17453 19274 112
17454 18416 250
17455 18717 325
17456 18434 325
17457 18701 294
17458 18013 933
17459 19296 459
17460 19312 996
17461 19323 164
17462 17926 800
17463 18915 669
17464 18071 676
17465 18163 184
17466 19445 322
17467 18784 553
17468 18448 865
17469 17762 836
17470 17840 445
17471 18730 877
17472 17696 18
17473 19003 775
17474 18013 515
17475 17552 771
17476 18904 863
17477 18874 94
17478 19128 726
17479 18212 96
17480 18372 852
17481 18428 308
17482 18817 789
17483 19011 957
17484 19048 623
17485 18279 424
17486 17898 626
17487 18485 21
17488 17966 477
17489 18235 592
17490 17840 69
17491 19153 827
17492 19110 540
17493 19048 201
17494 18900 183
17495 19339 868
17496 17832 687
17497 18087 987
17498 17528 445
17499 19202 856
17500 18688 650
17501 17563 548
17502 17917 176
17503 19301 82
17504 18170 391
17505 18623 924
17506 18486 904
17507 17544 850
17508 18418 735
17509 18828 709
17510 19154 240
17511 18313 43
17512 17837 799
17513 19263 254
17514 18587 680
17515 18229 336
17516 19459 520
17517 19492 713
17518 18848 729
17519 18231 682
17520 18110 647
17521 19326 710
17522 19365 671
17523 18012 103
17524 18591 45
17525 19496 119
17526 18065 620
17527 18187 762
17528 18189 372
17529 17880 489
17530 18137 258
17531 18830 12
17532 18852 593
17533 18514 808
17534 18269 608
17535 18792 967
17536 18787 142
17537 18267 422
17538 17733 836
17539 19335 196
17540 18819 723
17541 17597 176
17542 19448 290
17543 18375 261
17544 17780 164
17545 17932 198
17546 18456 911
17547 18288 507
17548 17841 798
17549 18368 150
17550 17568 169
17551 18454 173
17552 19007 513
17553 18206 129
17554 18766 40
17555 18049 30
17556 19082 668
17557 18681 398
17558 19129 681
17559 18057 671
17560 18132 65
17561 18938 718
17562 18667 524
17563 18725 71
17564 19472 793
17565 18177 770
17566 19381 621
17567 18069 358
17568 17943 671
17569 18185 202
17570 18285 168
17571 19199 836
17572 17996 450
17573 18990 841
17574 18002 126
17575 18582 909
17576 19126 970
17577 18439 605
17578 18559 955
17579 17958 131
17580 19090 262
17581 18924 27
17582 18278 954
17583 17778 996
17584 18769 161
17585 18598 561
17586 18026 433
17587 18259 526
17588 18188 364
17589 18970 335
17590 18925 484
17591 18726 484
17592 17869 538
17593 19066 884
17594 18233 257
17595 18770 669
17596 19349 519
17597 18736 645
17598 18229 965
17599 18299 512
17600 18635 898
17601 18501 72
17602 19384 476
17603 18168 364
17604 19379 62
17605 17942 443
17606 18397 764
17607 17701 142
17608 17772 483
17609 17760 667
17610 19470 100
17611 18881 34
17612 19327 618
17613 18017 868
17614 18689 437
17615 18166 415
17616 18389 468
17617 17784 100
17618 17950 444
17619 18941 433
17620 19500 500
17621 19172 807
17622 19096 316
17623 17809 207
17624 19329 339
17625 18287 25
17626 18244 21
17627 18934 374
17628 19135 370
17629 18081 327
17630 19035 765
17631 17937 521
17632 19003 594
17633 19234 862
17634 18374 839
17635 18812 744
17636 18086 264
17637 19316 252
17638 19049 883
17639 19468 522
17640 18868 542
17641 18561 485
17642 18148 6
17643 19349 331
17644 19262 171
17645 17988 522
17646 17828 881
17647 18865 743
17648 19024 528
17649 19164 885
17650 17737 633
17651 18404 77
17652 18819 870
17653 17698 155
17654 18972 449
17655 18685 130
17656 18218 557
17657 17845 636
17658 18378 147
17659 18881 458
17660 18059 568
17661 18028 932
17662 19178 390
17663 19083 637
17664 19382 691
17665 19339 977
17666 18497 219
17667 19391 359
17668 19350 467
17669 18586 519
17670 18951 525
17671 18121 598
17672 17711 603
17673 19234 934
17674 19052 498
17675 18791 801
17676 18916 899
17677 18925 396
17678 18875 476
17679 18589 755
17680 17885 674
17681 19111 691
17682 18497 982
17683 17704 990
17684 17884 257
17685 19231 214
17686 18283 410
17687 19177 657
17688 18880 321
17689 18866 233
17690 18474 970
17691 17946 284
17692 17717 273
17693 18808 474
17694 19250 128
17695 19483 333
17696 17939 703
17697 19190 183
17698 19413 703
17699 18357 500
17700 18881 37
17701 18568 569
17702 18495 220
17703 17758 390
17704 19002 34
17705 19362 173
17706 19251 896
17707 19380 179
17708 18556 833
17709 19420 675
17710 19462 560
17711 18266 67
17712 19305 181
17713 18372 920
17714 18241 606
17715 18379 340
17716 19069 849
17717 18195 287
17718 17775 87
17719 19261 225
17720 18562 227
17721 19380 474
17722 18004 459
17723 18293 482
17724 18844 473
17725 18387 939
17726 18513 929
17727 19145 562
17728 19420 3
17729 18023 868
17730 18486 290
17731 17880 647
17732 18333 460
17733 18270 46
17734 18453 454
17735 17919 84
17736 18433 80
17737 17795 857
17738 17795 318
17739 18599 611
17740 19045 315
17741 17803 507
17742 18241 188
17743 18681 845
17744 19265 478
17745 18418 893
17746 17821 504
17747 18401 199
17748 18619 167
17749 18195 218
17750 18994 576
17751 17943 166
17752 19321 354
17753 18096 186
17754 19482 839
17755 19383 336
17756 18761 660
17757 18745 914
17758 17914 599
17759 18593 258
17760 19372 203
17761 18543 148
17762 19370 859
17763 18323 373
17764 18454 780
17765 17873 215
17766 18511 829
17767 18353 513
17768 18894 156
17769 19480 178
17770 17985 485
17771 19405 33
17772 19255 935
17773 19390 976
17774 18266 15
17775 19356 779
17776 18252 492
17777 19484 582
17778 17980 640
17779 19070 699
17780 18209 831
17781 18317 872
17782 17789 359
17783 18245 438
17784 18255 831
17785 18170 778
17786 18038 562
17787 17827 730
17788 18380 741
17789 18535 593
17790 18604 448
17791 17821 313
17792 18666 217
17793 17893 783
17794 19069 901
17795 18327 934
17796 18863 315
17797 18436 224
17798 18515 566
17799 18150 748
17800 18197 900
17801 18036 939
17802 17878 727
17803 18311 131
17804 18599 289
17805 18874 487
17806 18349 157
17807 18294 931
17808 18219 148
17809 18979 270
17810 19335 802
17811 19217 194
17812 17821 473
17813 19166 51
17814 18647 250
17815 17970 565
17816 18220 649
17817 18189 945
17818 18379 803
17819 19304 113
17820 18989 57
17821 18935 401
17822 18366 572
17823 19041 551
17824 18179 410
17825 18307 175
17826 19469 665
17827 19068 129
17828 18677 411
17829 19475 418
17830 18940 977
17831 19201 702
17832 19255 886
17833 18807 221
17834 17863 779
17835 18067 710
17836 19144 501
17837 18671 538
17838 18147 364
17839 18833 784
17840 19339 609
17841 18201 386
17842 18289 428
17843 19224 299
17844 18055 736
17845 17981 577
17846 18800 336
17847 19323 397
17848 18793 455
17849 18613 80
17850 19424 766
17851 18681 301
17852 18165 576
17853 18904 902
17854 18261 361
17855 18264 473
17856 18737 991
17857 18556 280
17858 18931 77
17859 18556 160
17860 18741 242
17861 18736 574
17862 18956 416
17863 17930 373
17864 18721 26
17865 18799 828
17866 18359 832
17867 19459 760
17868 18356 915
17869 19274 714
17870 17906 393
17871 18990 913
17872 18643 428
17873 19148 340
17874 19022 92
17875 19150 98
17876 18730 833
17877 17919 34
17878 19280 251
17879 18006 69
17880 18674 205
17881 19029 596
17882 19086 986
17883 18507 225
17884 19107 782
17885 18686 833
17886 18488 460
17887 19378 311
17888 19448 841
17889 18381 381
17890 18856 765
17891 18252 571
17892 17969 855
17893 18280 1
17894 18858 95
17895 18414 306
17896 18758 715
17897 19115 67
17898 19188 714
17899 19167 106
17900 19458 3
17901 19221 79
17902 18378 654
17903 18441 934
17904 17962 460
17905 18096 559
17906 18737 562
17907 18789 634
17908 19047 359
17909 18136 562
17910 18602 246
17911 19251 727
17912 18578 998
17913 18552 845
17914 18244 346
17915 18348 424
17916 18547 549
17917 18909 281
17918 18199 231
17919 19162 232
17920 18766 926
17921 18692 396
17922 19297 750
17923 19409 599
17924 19470 726
17925 18395 291
17926 19194 413
17927 19179 272
17928 18183 107
17929 18099 124
17930 19482 857
17931 17950 41
17932 18399 885
17933 19308 683
17934 18363 236
17935 18528 844
17936 18159 263
17937 19009 232
17938 18806 905
17939 18510 325
17940 19122 767
17941 18298 482
17942 18160 577
17943 19334 240
17944 18277 188
17945 18867 99
17946 19039 283
17947 18535 437
17948 18621 163
17949 18450 159
17950 18601 882
17951 18238 79
17952 19004 886
17953 18966 858
17954 19478 229
17955 18916 868
17956 18411 908
17957 18900 325
17958 19373 514
17959 19485 992
17960 18024 505
17961 18814 961
17962 18461 589
17963 18556 672
17964 18599 346
17965 18409 980
17966 18874 435
17967 17981 712
17968 18240 63
17969 18433 410
17970 18722 741
17971 18389 864
17972 18497 386
17973 19304 743
17974 18898 445
17975 18153 166
17976 18353 736
17977 19219 117
17978 18021 279
17979 18913 926
17980 18562 847
17981 18481 362
17982 18450 933
17983 18479 421
17984 19059 338
17985 19264 323
17986 19193 410
17987 18732 57
17988 19202 607
17989 18129 145
17990 18813 987
17991 18879 217
17992 18305 379
17993 19088 36
17994 19267 465
17995 18362 350
17996 19292 229
17997 18445 72
17998 18131 766
17999 18164 650
18000 18414 342
18001 18468 9
18002 18284 884
18003 19186 769
18004 18902 593
18005 19218 898
18006 19264 352
18007 19032 22
18008 18480 106
18009 18595 358
18010 19440 589
18011 19307 315
18012 18032 470
18013 18184 973
18014 18882 331
18015 18182 701
18016 18275 288
18017 19301 783
18018 18765 694
18019 18528 813
18020 18368 922
18021 18568 688
18022 18061 472
18023 19026 762
18024 19486 178
18025 18823 765
18026 19456 697
18027 18279 675
18028 18095 989
18029 18193 527
18030 18421 148
18031 18216 872
18032 18752 776
18033 18853 428
18034 18803 444
18035 18462 756
18036 18097 794
18037 19004 217
18038 18393 104
18039 18883 360
18040 18272 875
18041 19358 184
18042 18435 278
18043 19065 924
18044 18255 688
18045 18782 374
18046 18386 450
18047 18387 719
18048 19263 488
18049 19297 1
18050 18959 549
18051 18448 556
18052 18560 54
18053 19407 958
18054 18514 757
18055 19357 627
18056 18434 963
18057 18912 288
18058 18676 552
18059 18142 855
18060 18347 709
18061 19376 864
18062 18662 949
18063 18461 789
18064 18617 89
18065 19179 359
18066 19450 493
18067 19223 17
18068 19456 124
18069 18286 961
18070 19332 637
18071 19039 886
18072 19491 507
18073 19429 635
18074 19492 964
18075 18463 569
18076 19266 451
18077 19202 320
18078 18089 699
18079 18872 48
18080 19064 335
18081 18976 439
18082 18178 589
18083 19099 354
18084 18545 853
18085 18436 502
18086 18746 406
18087 19302 97
18088 18193 820
18089 18997 351
18090 18397 248
18091 19333 175
18092 18867 371
18093 19353 119
18094 18437 840
18095 19033 56
18096 18497 983
18097 18507 917
18098 19446 809
18099 18175 854
18100 18152 781
18101 18440 83
18102 19355 278
18103 19477 394
18104 18370 76
18105 19019 777
18106 18338 53
18107 19354 754
18108 18739 832
18109 19255 992
18110 19170 3
18111 18966 598
18112 19237 172
18113 18900 262
18114 18388 282
18115 18408 831
18116 19239 634
18117 18292 240
18118 18765 653
18119 19482 761
18120 18132 97
18121 19039 219
18122 18957 378
18123 19093 548
18124 18861 92
18125 18523 603
18126 18684 661
18127 18929 235
18128 18518 94
18129 19291 994
18130 19325 633
18131 19111 192
18132 18431 987
18133 18582 96
18134 18826 211
18135 18755 704
18136 18700 218
18137 18578 717
18138 18558 285
18139 19247 438
18140 18180 506
18141 18575 286
18142 18581 984
18143 19285 388
18144 19185 263
18145 19284 641
18146 18263 85
18147 18945 806
18148 19431 394
18149 18576 412
18150 19209 617
18151 19256 882
18152 18310 487
18153 19277 980
18154 19067 766
18155 18618 141
18156 18535 372
18157 18864 677
18158 18942 482
18159 18664 887
18160 18313 359
18161 18383 165
18162 18894 656
18163 19419 729
18164 18477 561
18165 19087 703
18166 18265 332
18167 18855 666
18168 19356 563
18169 19156 118
18170 19369 618
18171 18504 649
18172 18496 313
18173 18730 409
18174 19388 366
18175 19274 741
18176 18826 513
18177 18546 981
18178 18906 372
18179 19197 873
18180 19065 575
18181 18308 210
18182 19205 740
18183 18304 896
18184 18320 791
18185 18553 226
18186 18524 797
18187 18519 663
18188 19152 460
18189 18479 69
18190 19301 890
18191 18442 760
18192 19247 33
18193 18779 208
18194 18996 485
18195 18441 669
18196 18883 475
18197 18217 729
18198 18717 717
18199 19173 119
18200 19216 159
18201 18676 138
18202 18233 378
18203 18528 344
18204 18783 476
18205 19094 79
18206 19308 356
18207 19081 548
18208 18805 762
18209 18383 348
18210 18566 245
18211 18523 846
18212 19259 535
18213 19015 666
18214 18528 529
18215 19387 775
18216 18236 555
18217 19129 211
18218 18767 494
18219 19491 329
18220 19182 194
18221 19009 905
18222 18949 461
18223 18760 438
18224 19370 830
18225 18354 132
18226 19157 224
18227 19075 605
18228 18862 869
18229 18382 283
18230 18786 154
18231 19460 938
18232 18498 721
18233 19220 673
18234 18859 938
18235 18364 313
18236 18591 325
18237 19189 651
18238 18309 843
18239 18709 410
18240 18882 858
18241 19309 783
18242 18512 423
18243 18988 545
18244 18473 327
18245 18793 990
18246 19152 683
18247 19302 559
18248 18898 887
18249 18672 699
18250 18260 828
18251 18304 922
18252 19127 598
18253 18659 480
18254 18720 429
18255 18716 3
18256 19204 346
18257 18260 234
18258 19414 861
18259 18396 608
18260 19484 579
18261 18855 19
18262 19419 697
18263 18557 772
18264 18976 544
18265 19300 78
18266 19312 179
18267 18673 363
18268 18319 376
18269 19386 86
18270 19143 66
18271 18953 357
18272 18493 760
18273 18621 539
18274 18522 226
18275 19470 653
18276 18886 876
18277 19403 287
18278 19349 957
18279 19213 97
18280 18707 838
18281 18952 922
18282 18324 546
18283 19485 980
18284 19061 328
18285 19177 673
18286 19336 410
18287 18339 603
18288 18676 726
18289 19179 960
18290 19190 613
18291 18562 234
18292 19365 925
18293 19348 899
18294 18404 272
18295 18603 445
18296 19295 650
18297 19428 589
18298 18997 354
18299 18518 499
18300 18922 894
18301 19286 536
18302 19344 359
18303 19114 256
18304 19345 711
18305 18322 699
18306 18461 2
18307 19109 59
18308 18487 466
18309 19350 694
18310 18733 549
18311 18687 983
18312 18733 234
18313 18389 933
18314 19342 295
18315 18809 978
18316 18361 572
18317 18581 739
18318 18579 715
18319 19017 149
18320 19475 490
18321 18387 215
18322 18505 447
18323 18862 883
18324 19424 21
18325 18372 750
18326 18756 59
18327 18552 920
18328 18464 545
18329 19039 224
18330 18542 892
18331 19014 921
18332 19160 12
18333 18458 593
18334 18390 137
18335 19044 125
18336 18557 422
18337 18496 520
18338 18723 945
18339 18516 33
18340 18561 561
18341 18785 488
18342 18623 458
18343 18368 681
18344 19143 219
18345 18985 880
18346 18739 534
18347 18814 316
18348 18862 440
18349 18932 267
18350 18551 880
18351 18694 846
18352 19286 266
18353 19192 516
18354 18748 162
18355 18661 48
18356 19440 356
18357 18888 403
18358 18932 102
18359 18897 8
18360 19164 589
18361 18386 793
18362 18657 575
18363 18473 295
18364 18777 904
18365 18738 658
18366 19308 411
18367 18453 921
18368 18788 599
18369 18510 901
18370 18606 647
18371 18949 226
18372 19372 602
18373 19010 989
18374 18960 320
18375 19204 469
18376 18827 392
18377 19079 284
18378 18977 444
18379 18469 425
18380 18768 238
18381 19109 648
18382 18395 821
18383 19409 650
18384 18936 976
18385 18685 577
18386 19137 669
18387 19225 37
18388 18947 119
18389 18856 755
18390 19240 217
18391 18814 864
18392 18504 987
18393 18919 465
18394 18800 825
18395 19017 186
18396 18932 619
18397 19411 978
18398 19409 309
18399 18927 823
18400 19127 733
18401 18678 202
18402 18652 70
18403 18833 837
18404 18595 834
18405 18517 888
18406 19029 820
18407 18644 44
18408 18847 140
18409 18893 354
18410 18751 251
18411 19348 377
18412 18935 330
18413 18497 765
18414 18572 865
18415 19045 562
18416 18783 162
18417 18714 499
18418 18459 555
18419 18540 232
18420 18658 342
18421 18582 1
18422 19398 209
18423 19020 789
18424 19337 27
18425 18545 98
18426 18575 125
18427 19455 242
18428 18449 812
18429 18532 796
18430 19173 846
18431 18842 656
18432 18618 90
18433 19204 126
18434 19298 396
18435 18671 930
18436 19396 499
18437 19429 584
18438 18480 978
18439 18883 81
18440 19478 801
18441 18980 951
18442 19286 364
18443 19231 136
18444 18574 569
18445 19025 373
18446 18717 98
18447 19397 271
18448 18784 83
18449 18608 267
18450 18482 385
18451 18577 753
18452 19372 405
18453 19303 990
18454 18813 428
18455 19261 338
18456 18509 191
18457 19167 820
18458 18830 468
18459 19335 713
18460 18734 815
18461 18819 429
18462 19102 158
18463 19450 911
18464 19466 966
18465 18955 921
18466 18669 613
18467 19045 256
18468 19342 143
18469 18831 449
18470 18759 972
18471 18787 413
18472 19324 822
18473 19032 706
18474 19289 95
18475 18542 620
18476 18632 994
18477 18934 592
18478 18509 673
18479 18706 794
18480 18812 483
18481 18792 553
18482 18622 155
18483 19442 443
18484 18530 297
18485 18556 342
18486 18760 196
18487 18525 674
18488 18511 872
18489 19325 601
18490 19349 104
18491 19457 579
18492 18763 486
18493 18667 60
18494 19369 384
18495 19269 718
18496 18959 585
18497 18858 200
18498 18961 601
18499 19389 215
18500 19035 479
18501 18608 910
18502 18978 686
18503 18817 368
18504 18912 985
18505 19351 13
18506 19302 991
18507 19148 341
18508 18999 942
18509 19036 153
18510 18772 220
18511 18603 409
18512 18700 717
18513 18681 778
18514 19451 939
18515 19273 588
18516 18561 790
18517 18603 867
18518 18727 385
18519 18565 827
18520 18638 862
18521 19307 387
18522 18867 930
18523 18901 23
18524 19336 676
18525 18848 962
18526 18812 300
18527 18907 164
18528 18618 573
18529 18802 204
18530 18812 563
18531 19265 201
18532 18677 439
18533 18758 477
18534 19399 97
18535 18710 186
18536 19321 779
18537 19077 373
18538 18803 127
18539 19452 714
18540 18701 326
18541 19271 479
18542 19050 342
18543 19073 58
18544 19135 790
18545 19309 814
18546 19314 983
18547 19049 348
18548 18567 698
18549 18579 227
18550 19298 27
18551 19399 676
18552 18742 598
18553 18629 55
18554 19357 298
18555 18951 1000
18556 18762 137
18557 18610 967
18558 19495 840
18559 19451 40
18560 18696 519
18561 19189 996
18562 18643 783
18563 18854 820
18564 18879 868
18565 19240 387
18566 19131 547
18567 18861 768
18568 19058 673
18569 18864 147
18570 18774 386
18571 19352 47
18572 18933 441
18573 19008 901
18574 19396 524
18575 19080 260
18576 19419 318
18577 18782 706
18578 19189 651
18579 19491 46
18580 19112 9
18581 18813 268
18582 18991 437
18583 18776 266
18584 19428 848
18585 19145 364
18586 19352 661
18587 18639 815
18588 19208 991
18589 18834 108
18590 19129 583
18591 19276 461
18592 19242 246
18593 19020 707
18594 19352 476
18595 18821 808
18596 18682 65
18597 18634 292
18598 18710 948
18599 18819 831
18600 18626 575
18601 19022 836
18602 18896 833
18603 19432 503
18604 19005 662
18605 18631 165
18606 18917 79
18607 19024 124
18608 18833 330
18609 19205 15
18610 19291 70
18611 18874 881
18612 18763 183
18613 18744 942
18614 19134 936
18615 19454 453
18616 18999 636
18617 18773 119
18618 19265 504
18619 18842 164
18620 19116 880
18621 19286 678
18622 18920 703
18623 18913 229
18624 18987 932
18625 18711 776
18626 19282 908
18627 19060 581
18628 19054 160
18629 19380 873
18630 19253 484
18631 18914 25
18632 18720 496
18633 18709 340
18634 18664 908
18635 19308 269
18636 19094 590
18637 19450 966
18638 18830 258
18639 19294 475
18640 19339 527
18641 18643 754
18642 19206 207
18643 18939 400
18644 18758 453
18645 18703 800
18646 19490 642
18647 19463 975
18648 18692 246
18649 18698 562
18650 18770 277
18651 19091 570
18652 18902 617
18653 19077 156
18654 19019 607
18655 19161 17
18656 19429 519
18657 19437 645
18658 19406 866
18659 18919 539
18660 19041 755
18661 19381 160
18662 18789 211
18663 19329 141
18664 18727 834
18665 18679 920
18666 19454 185
18667 19355 586
18668 19183 437
18669 18799 720
18670 19434 800
18671 19083 500
18672 19419 822
18673 19052 104
18674 18712 960
18675 19369 246
18676 18805 896
18677 18824 394
18678 19200 758
18679 18805 447
18680 19234 271
18681 18898 830
18682 18752 280
18683 18875 245
18684 18879 604
18685 18717 351
18686 19265 951
18687 18870 971
18688 19413 890
18689 19064 12
18690 18976 428
18691 19216 429
18692 19114 817
18693 18716 16
18694 19064 10
18695 19185 520
18696 18768 88
18697 18707 888
18698 19272 719
18699 18765 635
18700 18843 60
18701 19442 265
18702 18751 315
18703 19010 183
18704 19437 406
18705 18950 694
18706 19254 305
18707 18883 12
18708 19006 27
18709 18878 907
18710 19411 747
18711 19462 104
18712 18949 93
18713 19304 816
18714 19168 663
18715 19284 271
18716 18800 197
18717 18770 250
18718 19411 576
18719 19269 687
18720 19072 8
18721 19344 358
18722 19412 154
18723 19420 992
18724 19084 705
18725 18863 760
18726 19184 932
18727 18962 331
18728 19103 977
18729 18918 396
18730 19060 394
18731 19041 69
18732 18980 348
18733 19334 12
18734 19453 66
18735 18980 258
18736 19074 473
18737 19181 660
18738 18847 647
18739 19012 179
18740 19119 59
18741 19012 231
18742 19405 538
18743 19466 60
18744 18779 453
18745 19105 512
18746 19447 740
18747 19290 885
18748 19392 666
18749 19489 606
18750 19314 277
18751 19008 446
18752 18922 560
18753 19365 100
18754 19368 4
18755 19321 523
18756 19347 648
18757 19399 829
18758 18764 5
18759 19003 71
18760 19210 605
18761 18912 916
18762 19055 442
18763 19078 253
18764 19226 847
18765 18907 931
18766 18783 19
18767 19013 79
18768 19140 784
18769 19281 306
18770 19195 723
18771 19125 914
18772 19058 935
18773 19169 162
18774 19171 861
18775 19498 559
18776 19176 810
18777 19319 365
18778 18810 662
18779 19285 899
18780 19255 204
18781 18920 617
18782 19218 309
18783 19356 896
18784 18917 885
18785 18829 743
18786 19178 188
18787 18910 180
18788 19033 353
18789 19036 172
18790 18846 471
18791 19148 804
18792 19072 910
18793 19116 319
18794 19004 437
18795 18892 115
18796 19100 970
18797 18917 101
18798 19298 670
18799 19300 965
18800 19115 235
18801 18831 477
18802 19393 604
18803 19159 60
18804 19188 421
18805 19237 538
18806 19279 117
18807 19012 778
18808 18827 535
18809 19320 687
18810 19488 312
18811 19408 500
18812 18910 990
18813 18823 882
18814 19213 699
18815 19029 577
18816 18899 982
18817 19006 940
18818 18987 461
18819 19327 37
18820 19355 227
18821 19216 972
18822 19028 121
18823 19279 889
18824 19280 209
18825 18858 350
18826 19202 226
18827 19264 125
18828 19328 966
18829 19065 834
18830 19454 815
18831 19151 987
18832 19369 434
18833 18990 310
18834 18973 605
18835 19327 382
18836 19374 809
18837 18960 33
18838 19350 687
18839 18980 96
18840 19271 23
18841 19181 245
18842 19309 776
18843 18998 71
18844 19386 988
18845 19476 477
18846 19395 908
18847 19435 674
18848 19410 945
18849 19176 247
18850 19262 222
18851 19078 368
18852 19071 83
18853 19185 79
18854 18947 604
18855 19393 149
18856 19483 981
18857 19480 886
18858 19039 762
18859 19136 266
18860 18980 968
18861 19056 475
18862 18959 37
18863 19290 7
18864 19402 851
18865 18912 59
18866 19409 799
18867 19064 831
18868 18908 758
18869 19251 992
18870 19055 989
18871 19007 399
18872 19368 238
18873 18928 905
18874 19206 587
18875 19362 948
18876 19187 561
18877 19046 190
18878 18970 990
18879 19235 119
18880 19227 538
18881 19259 114
18882 19337 887
18883 18972 240
18884 19385 25
18885 18918 988
18886 19080 138
18887 19252 998
18888 19160 9
18889 19077 84
18890 19497 127
18891 19137 433
18892 18907 494
18893 19091 891
18894 19338 429
18895 19064 980
18896 19038 562
18897 19472 680
18898 19298 656
18899 19089 888
18900 19369 786
18901 19190 191
18902 18968 731
18903 19292 162
18904 19273 744
18905 19316 991
18906 19097 480
18907 19416 932
18908 19496 780
18909 19318 491
18910 19385 381
18911 19390 22
18912 19381 430
18913 19090 680
18914 19430 522
18915 19410 255
18916 19495 160
18917 19416 978
18918 19435 800
18919 18922 809
18920 19105 391
18921 19482 525
18922 19435 1
18923 19403 265
18924 19290 233
18925 19145 32
18926 19165 122
18927 19092 877
18928 19386 234
18929 19086 109
18930 19129 395
18931 19377 533
18932 19038 480
18933 19238 261
18934 19472 465
18935 19458 524
18936 19072 556
18937 19046 423
18938 19337 235
18939 19181 399
18940 19132 58
18941 18982 32
18942 19453 540
18943 18971 149
18944 19460 490
18945 19258 249
18946 19497 807
18947 19064 49
18948 19399 122
18949 19378 286
18950 19166 487
18951 19467 537
18952 19123 524
18953 19131 47
18954 19040 501
18955 19055 270
18956 19451 429
18957 19308 754
18958 19214 622
18959 19264 13
18960 19269 240
18961 19471 86
18962 19276 242
18963 19044 515
18964 18980 374
18965 19465 899
18966 19483 836
18967 19003 985
18968 19392 396
18969 19222 726
18970 19076 907
18971 19068 768
18972 19040 11
18973 19481 952
18974 19294 232
18975 19385 893
18976 19240 77
18977 19225 142
18978 19356 529
18979 19158 386
18980 19133 921
18981 19058 273
18982 19017 29
18983 19000 102
18984 19037 414
18985 19261 429
18986 19404 424
18987 19188 328
18988 19385 487
18989 19419 773
18990 19272 810
18991 19381 509
18992 19306 779
18993 19335 138
18994 19496 438
18995 19157 808
18996 19097 818
18997 19251 541
18998 19409 489
18999 19441 77
19000 19329 23
19001 19392 86
19002 19114 204
19003 19362 409
19004 19012 47
19005 19245 648
19006 19218 71
19007 19266 594
19008 19471 699
19009 19189 414
19010 19353 854
19011 19385 127
19012 19384 588
19013 19186 821
19014 19153 95
19015 19220 619
19016 19017 248
19017 19468 404
19018 19029 871
19019 19352 225
19020 19271 862
19021 19336 2
19022 19060 507
19023 19113 262
19024 19033 842
19025 19090 699
19026 19439 742
19027 19137 998
19028 19050 127
19029 19216 496
19030 19482 436
19031 19369 957
19032 19449 293
19033 19255 724
19034 19452 588
19035 19044 58
19036 19051 360
19037 19443 579
19038 19256 3
19039 19500 859
19040 19056 108
19041 19198 792
19042 19338 718
19043 19241 364
19044 19229 335
19045 19322 125
19046 19073 664
19047 19461 889
19048 19420 796
19049 19191 218
19050 19435 6
19051 19189 351
19052 19471 899
19053 19235 47
19054 19290 546
19055 19145 183
19056 19330 596
19057 19191 529
19058 19368 867
19059 19464 334
19060 19342 134
19061 19132 756
19062 19262 519
19063 19169 591
19064 19392 708
19065 19288 617
19066 19071 545
19067 19156 658
19068 19274 45
19069 19367 876
19070 19113 839
19071 19194 788
19072 19234 793
19073 19427 934
19074 19327 545
19075 19247 899
19076 19358 409
19077 19230 553
19078 19253 724
19079 19135 558
19080 19269 547
19081 19421 91
19082 19461 992
19083 19394 648
19084 19114 450
19085 19468 440
19086 19440 340
19087 19166 185
19088 19258 701
19089 19253 545
19090 19177 582
19091 19342 700
19092 19498 963
19093 19113 651
19094 19463 916
19095 19193 804
19096 19423 342
19097 19377 240
19098 19136 656
19099 19121 487
19100 19275 733
19101 19383 29
19102 19202 566
19103 19275 955
19104 19256 677
19105 19192 913
19106 19282 660
19107 19111 989
19108 19406 807
19109 19225 984
19110 19124 848
19111 19442 534
19112 19360 340
19113 19411 324
19114 19146 18
19115 19448 967
19116 19119 586
19117 19123 978
19118 19235 28
19119 19347 52
19120 19182 17
19121 19257 581
19122 19330 737
19123 19370 167
19124 19479 902
19125 19228 960
19126 19358 244
19127 19219 518
19128 19189 162
19129 19336 889
19130 19217 187
19131 19201 726
19132 19207 809
19133 19499 47
19134 19316 794
19135 19456 267
19136 19430 51
19137 19361 835
19138 19483 422
19139 19145 230
19140 19269 735
19141 19299 715
19142 19247 727
19143 19497 630
19144 19211 60
19145 19482 41
19146 19289 353
19147 19474 57
19148 19345 119
19149 19189 210
19150 19220 500
19151 19232 707
19152 19487 280
19153 19386 114
19154 19219 245
19155 19280 542
19156 19395 513
19157 19398 10
19158 19279 459
19159 19440 576
19160 19327 328
19161 19225 763
19162 19433 751
19163 19441 436
19164 19419 413
19165 19315 91
19166 19212 44
19167 19317 759
19168 19360 785
19169 19392 499
19170 19219 998
19171 19196 97
19172 19461 424
19173 19473 875
19174 19341 981
19175 19357 634
19176 19359 979
19177 19431 863
19178 19453 45
19179 19345 316
19180 19364 799
19181 19292 570
19182 19458 218
19183 19467 929
19184 19254 189
19185 19204 751
19186 19188 892
19187 19476 176
19188 19438 123
19189 19235 259
19190 19265 166
19191 19393 16
19192 19438 552
19193 19473 526
19194 19259 631
19195 19311 6
19196 19269 269
19197 19354 338
19198 19424 974
19199 19255 671
19200 19217 483
19201 19383 799
19202 19458 668
19203 19483 310
19204 19374 581
19205 19417 40
19206 19344 293
19207 19493 259
19208 19254 670
19209 19433 612
19210 19279 848
19211 19371 54
19212 19368 318
19213 19235 450
19214 19343 316
19215 19263 801
19216 19489 442
19217 19279 503
19218 19281 418
19219 19496 731
19220 19417 887
19221 19409 296
19222 19232 879
19223 19241 876
19224 19361 408
19225 19302 385
19226 19405 460
19227 19317 756
19228 19233 694
19229 19366 185
19230 19438 899
19231 19298 751
19232 19463 871
19233 19294 223
19234 19423 93
19235 19257 627
19236 19497 63
19237 19469 758
19238 19438 319
19239 19447 591
19240 19315 827
19241 19266 539
19242 19345 844
19243 19341 349
19244 19412 634
19245 19346 771
19246 19395 233
19247 19393 319
19248 19363 220
19249 19363 741
19250 19408 396
19251 19296 564
19252 19312 240
19253 19428 584
19254 19299 103
19255 19396 386
19256 19360 999
19257 19267 752
19258 19483 173
19259 19291 7
19260 19331 400
19261 19355 931
19262 19500 341
19263 19463 590
19264 19495 820
19265 19372 333
19266 19403 372
19267 19422 230
19268 19356 912
19269 19354 757
19270 19379 528
19271 19395 528
19272 19342 961
19273 19333 19
19274 19422 753
19275 19322 89
19276 19304 841
19277 19361 934
19278 19457 998
19279 19367 640
19280 19423 877
19281 19471 234
19282 19348 199
19283 19388 616
19284 19417 492
19285 19366 615
19286 19344 631
19287 19410 964
19288 19366 636
19289 19297 80
19290 19374 749
19291 19308 246
19292 19325 925
19293 19410 118
19294 19381 471
19295 19309 241
19296 19320 338
19297 19372 219
19298 19348 98
19299 19407 136
19300 19361 906
19301 19479 96
19302 19306 726
19303 19375 143
19304 19443 626
19305 19311 699
19306 19423 128
19307 19354 707
19308 19491 450
19309 19336 155
19310 19411 246
19311 19366 502
19312 19336 773
19313 19459 945
19314 19336 331
19315 19408 662
19316 19394 407
19317 19361 910
19318 19474 412
19319 19374 124
19320 19342 711
19321 19381 103
19322 19471 811
19323 19500 669
19324 19378 651
19325 19336 371
19326 19335 992
19327 19370 789
19328 19341 599
19329 19488 160
19330 19463 916
19331 19486 158
19332 19351 844
19333 19456 734
19334 19400 787
19335 19345 345
19336 19471 315
19337 19495 576
19338 19405 93
19339 19353 251
19340 19379 973
19341 19478 209
19342 19399 370
19343 19499 498
19344 19394 886
19345 19452 205
19346 19460 782
19347 19388 384
19348 19442 607
19349 19376 946
19350 19434 137
19351 19493 296
19352 19437 465
19353 19393 505
19354 19483 522
19355 19440 951
19356 19364 680
19357 19365 942
19358 19379 886
19359 19388 980
19360 19485 218
19361 19421 75
19362 19464 60
19363 19382 311
19364 19430 733
19365 19392 692
19366 19443 962
19367 19408 33
19368 19495 586
19369 19421 163
19370 19466 817
19371 19484 245
19372 19416 583
19373 19394 502
19374 19453 46
19375 19469 865
19376 19405 769
19377 19401 656
19378 19386 890
19379 19469 495
19380 19462 556
19381 19389 702
19382 19447 407
19383 19395 171
19384 19480 287
19385 19438 172
19386 19476 50
19387 19446 16
19388 19414 245
19389 19428 799
19390 19478 114
19391 19451 349
19392 19405 693
19393 19415 43
19394 19403 606
19395 19412 51
19396 19439 371
19397 19433 214
19398 19423 771
19399 19437 902
19400 19416 329
19401 19475 449
19402 19488 844
19403 19437 496
19404 19458 756
19405 19434 587
19406 19472 281
19407 19414 402
19408 19497 885
19409 19454 932
19410 19495 239
19411 19438 844
19412 19470 630
19413 19433 216
19414 19486 960
19415 19421 278
19416 19436 548
19417 19498 150
19418 19491 655
19419 19496 251
19420 19422 409
19421 19456 20
19422 19445 431
19423 19431 595
19424 19435 762
19425 19497 412
19426 19493 961
19427 19484 939
19428 19482 765
19429 19458 784
19430 19483 209
19431 19491 277
19432 19467 568
19433 19435 713
19434 19478 951
19435 19479 153
19436 19463 23
19437 19500 657
19438 19460 694
19439 19466 326
19440 19499 136
19441 19499 583
19442 19494 832
19443 19461 98
19444 19461 124
19445 19456 689
19446 19449 569
19447 19465 192
19448 19482 783
19449 19455 334
19450 19456 769
19451 19462 372
19452 19500 479
19453 19470 351
19454 19480 165
19455 19478 120
19456 19469 958
19457 19483 151
19458 19488 500
19459 19469 848
19460 19466 732
19461 19480 295
19462 19472 692
19463 19479 493
19464 19467 285
19465 19491 244
19466 19500 785
19467 19492 109
19468 19500 503
19469 19491 460
19470 19479 340
19471 19486 611
19472 19498 883
19473 19479 644
19474 19480 654
19475 19500 891
19476 19495 564
19477 19492 237
19478 19496 374
19479 19496 872
19480 19499 418
19481 19494 57
19482 19487 777
19483 19484 309
19484 19496 973
19485 19497 662
19486 19492 912
19487 19494 865
19488 19491 321
19489 19490 1
19490 19492 57
19491 19499 345
19492 19493 29
19493 19495 817
19494 19499 606
19495 19496 58
19496 19498 30
19497 19498 123
19498 19499 255
19499 19500 529
13692 15909 4923
4997 18699 13762
17048 17321 7938
13259 18122 6430
8248 18381 11365
1466 19139 19420
2536 14718 90
13537 18664 5680
10597 12727 12277
3484 17011 9574
7066 18797 2335
3538 13699 3442
2878 8221 13210
19498 19499 5658
8247 14990 9867
5844 16143 3043
15383 16230 3136
14553 16285 12731
7828 11959 4535
13608 15534 14832
1920 16396 15560
3122 8452 6040
11985 13216 1652
18371 19378 14000
9819 11771 866
4899 14164 3795
9399 10146 16351
9336 11296 11130
3535 5748 9386
1194 11266 11742
13907 16742 1524
15005 15500 17988
13923 15536 19413
13095 17777 6715
2767 7103 8032
15291 16611 3786
6623 10497 5016
17965 19054 16622
1960 7394 12572
2695 3904 16233
9300 19361 17581
13395 18108 10150
14078 18863 2749
14523 15132 6538
17071 18501 7108
12493 14878 1414
2247 12935 12798
18915 19487 15506
4814 11605 14737
18486 19167 3368
749 3698 487
2311 13029 12896
5213 17762 3076
12114 15438 11174
16727 18592 13747
6690 9931 9362
17789 18113 9404
11832 13440 13102
13517 16257 2321
5748 7939 3033
5895 16330 19343
14405 18832 19367
10872 18267 4138
10215 16979 12800
11807 17636 4008
16218 18978 9900
1735 17138 3503
15362 18372 4346
8299 11179 15894
14077 17542 5371
7766 8522 8654
6193 17385 17049
13914 15855 18380
7292 8698 1795
7728 13661 15387
18228 18417 12260
11636 15662 2849
180 4344 11166
9821 14287 9552
385 11398 11047
12131 18534 946
18349 19483 8769
2326 3299 15987
13691 14197 9367
18362 18614 13805
9760 11549 6233
13984 15561 8367
15434 18681 17165
8823 18607 17521
2509 5381 3553
4641 17393 12556
11055 18487 4584
3484 18779 7007
15765 19332 414
13325 15994 19378
6303 14356 13725
8123 17384 17478
14083 19258 17988
15797 18063 9613
18366 19497 8428
8982 19360 11917
1552 4415 11367
14203 14801 17782
7422 12330 3455
3408 17375 5834
292 9645 16292
9253 9454 9303
6780 9128 5128
18949 19102 4971
10060 11075 16590
14882 17393 19001
3228 7880 5825
18095 18950 17605
10920 15950 735
13026 16180 3804
12461 18098 2302
15698 15705 7527
7055 15329 1566
16062 16115 8719
14033 17098 19248
1216 11011 4348
18595 19244 4325
8309 11904 3083
174 7364 9351
10614 14143 13824
10290 12249 10095
12130 17580 17821
11443 18326 13149
10046 14423 1534
19309 19426 9490
8457 17945 7731
7124 15857 7868
559 16776 12444
9459 13599 1572
13790 14044 8410
16185 18255 10
5374 17941 18374
3780 9853 12002
3954 12625 10520
8824 14267 10703
19226 19414 7803
325 8072 15226
13894 18777 1628
11750 17874 16953
5076 19400 1142
9833 19444 13353
18344 18989 1534
4342 19226 3861
9575 10400 9865
16888 19167 14747
5890 11481 18752
4430 5236 10353
5482 9316 12827
16003 17323 14679
16543 18818 16108
14177 16192 5326
17598 18863 14075
9061 11289 3666
12539 14858 1821
7473 8557 631
2638 11019 6451
15463 18428 19118
13165 14016 18971
31 14067 13479
8005 13638 14043
9277 12068 1858
5861 9246 1409
9078 9777 13122
16584 18479 18595
2588 7540 4341
14220 15041 10699
5890 10911 3614
17628 17898 14164
1584 7413 12791
4112 8270 13134
461 8836 11892
16408 19254 6482
19128 19338 13510
6874 13532 16013
17127 18237 19202
1045 18981 3636
6580 18625 7947
10182 14788 9465
14674 16297 16462
8984 16973 13354
19399 19435 5852
13587 15773 12148
1574 2143 9072
6582 13932 11916
16092 18161 6811
16621 18738 15349
1561 4010 12722
12599 16210 6351
17542 17596 9010
11840 12409 18916
9990 15743 1025
17444 18873 11867
13570 17189 3532
1162 5155 5659
16514 17435 5896
1817 16737 1680
12072 17720 5741
448 11071 11632
15564 19015 10924
819 7753 16898
3353 10609 14442
12367 13848 15062
3653 6951 9188
12082 15458 15189
11623 12826 5603
11560 15253 10343
2544 6274 5957
11729 12725 15783
18646 19392 6004
7834 15157 502
3190 7604 9278
15640 19200 612
5876 10358 17878
12756 14786 13725
13878 14871 12835
3535 7788 9159
7057 18889 4777
479 6839 12248
6579 10235 14118
12867 18705 15867
7435 7787 8127
10717 17407 8177
9783 12105 19185
2357 19346 10622
10423 14612 17296
3605 9320 2764
8375 15982 15760
2402 18458 13000
19480 19490 6414
3265 8527 496
18668 18967 6497
6897 18058 10925
15849 16545 3470
16998 18378 14010
356 8381 10364
13315 13813 13818
15779 19127 2602
1919 8399 11553
18099 18352 2469
12660 13879 3399
10910 11622 13521
5984 14238 7825
6927 15038 12048
2497 11209 63
3875 4221 1538
14858 18235 15330
14930 15993 5600
2869 12059 8842
15004 15812 8913
4944 5851 7736
16624 17605 16969
8965 9710 16063
2137 9122 8347
16107 18326 16446
6949 9287 3915
13864 19149 1729
12318 13033 7363
17886 18103 16349
14283 14907 16545
15966 17939 6752
18711 18968 17969
3723 12614 6066
10199 15453 12848
2149 4137 7535
5300 11729 10091
15699 16105 1346
10167 18222 1172
16788 18419 3017
12739 18969 16482
13629 15984 8051
458 6055 4299
17262 19186 10046
12439 14604 3479
839 3939 18866
14339 18734 5065
7894 16010 7376
9745 16369 16275
11168 18946 4869
9171 17915 11307
17062 18381 76
10802 18813 16600
16408 16994 16752
18437 18555 18644
7773 12309 13476
15129 19247 14399
17118 17190 18363
7497 12815 16692
14655 19335 4797
7911 10685 6952
6281 18537 5354
8564 16413 14901
9562 18130 18615
1129 14187 5920
8326 10486 13314
4915 18521 11902
15070 18774 14820
1679 3271 13348
13728 15203 13689
11960 17886 5857
13123 17811 14864
6970 11143 4503
5268 10355 9508
17124 17328 15294
3856 19145 1939
3030 12563 4946
15057 15473 5581
2363 19379 801
12142 18683 16570
8862 13756 7235
152 2607 14046
12688 13155 7674
13610 13790 6412
1653 5946 14721
8241 12536 5248
8883 16691 4855
17559 18727 16105
3572 11719 4401
17980 18083 9476
2089 10521 4476
8645 13634 17599
9980 17323 5086
18675 19126 13344
16014 17938 13437
16229 19306 12899
1733 4329 288
7494 15088 440
15671 18761 1386
434 7855 8390
3236 10626 11967
15288 16138 2596
1833 16182 3542
18558 18956 1250
13290 18579 8305
8582 13277 8816
18605 18937 15299
7538 12922 5414
17160 17281 14849
4841 4908 15723
3336 12294 10372
13256 18003 17497
5202 18045 3960
5094 16326 12171
970 19457 13515
17549 18207 2905
6712 14131 2426
17590 17996 11992
40 5811 4347
4557 5300 19025
1299 4288 3203
4227 19439 9570
9151 12369 11707
6660 13312 7762
16772 19318 16481
1484 6133 16902
1881 4985 12222
6195 10863 7154
2804 16206 11672
10696 11743 17123
9396 13825 16361
18748 19188 2871
18445 19308 18515
10538 13713 4007
14458 15279 8459
2468 18797 15409
4505 9423 1097
4311 19217 13693
17815 18054 5855
8932 19475 14607
16914 16933 18162
16496 16851 17969
10815 15090 3027
9683 18219 18288
6494 8894 13205
4551 13543 10313
2130 4015 6531
3460 6261 4413
3829 16516 18861
8453 11323 6266
16883 19392 13188
18079 18984 13414
16249 17802 12305
1047 11888 1880
5088 10273 11643
13004 13184 758
10423 13049 6782
5667 11297 16311
9489 10397 1766
18303 19473 7462
10947 17233 620
1052 6290 9997
31 16650 3238
6410 15487 3674
15198 18381 2672
7775 12425 3499
16740 18456 4831
16812 18105 17109
4476 7608 7439
3419 13276 6829
10331 11562 14973
15805 17470 18165
17020 18436 13058
14051 18747 12172
9869 18298 7032
4993 16331 3854
8399 12573 8504
9273 15535 15560
16226 17837 11547
16876 19024 14385
7224 11645 14364
6781 10417 17630
19106 19444 17819
10379 13476 10855
15157 16109 17742
12332 12363 7779
19300 19477 16335
680 9695 1159
12727 18257 4140
6266 10115 5313
3973 6029 18503
7758 19390 3614
3984 7556 14901
11045 16264 6786
484 10725 8441
5902 10530 12592
2413 3667 3979
3415 15603 14487
8514 17713 16571
5217 10515 13071
1665 18589 7110
736 3949 5379
13446 15892 1137
17923 18926 12261
18913 19052 17454
7108 18127 5307
6811 15795 17131
10099 14010 14337
18505 18707 168
4394 13454 16668
15069 19072 2672
8768 13716 5410
17398 18660 2916
16763 19110 1241
19027 19034 14136
11186 17979 8998
10772 15706 6600
18496 18740 6503
14727 16335 13243
5307 15522 17879
8911 12085 10593
8937 12127 7996
5733 6983 6450
18082 19338 615
6687 17458 7471
16333 16620 11466
17825 17956 13073
16951 19090 16475
9535 18480 9668
461 16232 7964
18494 19430 5623
13785 17162 14731
16910 17904 13766
14709 18318 12010
3164 5250 6637
5757 8441 18851
19165 19354 2113
8031 12708 2261
1165 7179 9318
6534 14360 18965
14022 14325 2426
8934 13043 10983
1957 12900 16472
13124 15265 17019
7903 9122 1867
8154 17750 17342
2553 18459 15187
12356 13550 15380
9502 14756 7266
3542 16013 16408
1864 17150 443
4873 6675 10345
5694 17635 16497
2302 12255 13629
357 3458 6339
15430 16048 12067
3799 11098 340
8527 15275 18916
7476 18592 13380
16462 17516 2320
13383 17309 18960
2950 14295 8213
366 3238 11517
8550 12233 3134
5634 11758 19261
18563 18742 6445
9701 18680 3344
9750 14526 611
18754 18902 12514
1026 15847 15025
4807 18526 11135
18465 19180 11353
18303 18558 11071
368 6216 8846
1582 9546 4329
5456 8557 10019
16831 16838 9113
16580 16812 19429
15855 17088 4545
17339 17584 6378
1443 13458 406
3249 9982 8220
16232 17876 16908
107 16389 7948
9305 16371 14585
3057 4547 18872
5643 11331 13065
9473 16144 3853
13820 15919 18508
17905 18419 4677
7219 10955 11921
16681 16796 16858
16142 17178 8058
10659 15215 4253
8288 18311 12426
5865 18319 14135
17501 17701 12013
9002 13721 8277
8728 9197 3927
18649 18759 13508
2222 11523 9920
16082 16612 3615
12575 15435 2713
15801 17015 11288
19129 19416 6502
8355 16122 10857
6161 18538 2795
4016 4304 5286
15816 17665 1624
17426 19420 12482
1665 10174 11232
6644 6836 3704
12569 14981 945
7415 15019 14141
5473 17322 13386
7111 15502 8075
4232 9997 19247
18634 18684 2978
2722 11087 2577
4135 17015 3228
15812 18272 14981
8315 17587 4312
5119 17527 14649
15527 16254 15265
9182 15922 16325
10101 18141 1762
14481 15705 9819
12486 16890 17156
16747 18975 16186
8097 14802 10727
3572 11009 19091
5625 14567 9496
224 1653 14882
7496 8766 14137
5124 15467 241
6631 8527 4217
724 7619 8133
7634 10980 17488
3489 14184 16949
12893 13669 2807
17239 18277 972
344 10362 7744
6762 18557 17176
15806 18742 13073
11596 17647 10946
15386 18509 8401
2440 15382 10929
8340 14926 11474
15802 15892 6741
16047 17297 2254
7774 17070 491
13408 19451 2145
1933 7134 1413
8792 13594 4212
12146 17147 999
4212 8987 11074
8738 15281 2399
10157 11474 13520
14311 17621 7269
16711 17710 12109
867 3524 1482
1051 7807 13695
6902 10131 16069
9698 11924 10315
5863 7038 7035
4525 10686 7247
17623 18885 3086
6912 9572 9965
11622 16032 7128
7588 7850 14276
15264 17196 12649
7540 14279 18260
493 15235 9061
6212 8149 17584
9826 17923 16053
8194 10871 10672
16950 18594 12939
5900 15708 10428
945 2805 6143
4250 12376 10944
16107 18513 18090
15325 15439 1386
1075 13285 8187
13503 16577 12437
310 16835 17483
10027 12247 12456
11602 14551 16694
2052 15257 3167
602 15743 5746
15349 16309 6460
3543 12659 9442
4715 8155 2671
10717 16813 18534
8740 11649 6096
12418 16889 8109
10665 15679 7404
4700 9645 76
10112 13306 3895
19093 19263 3532
7156 14706 2323
11248 11411 15926
7187 15397 1247
14074 16414 7483
13674 15783 10636
17521 18731 8371
7320 19146 9251
7207 14466 7564
11862 15493 2000
14307 17778 9898
3055 5624 3818
3263 18422 15219
5060 14886 10553
17601 19051 13810
17155 18606 12164
12004 15284 10961
13104 15807 15498
13641 17712 13482
16183 17424 4568
13409 18232 18430
11818 14358 10652
17655 19470 1958
3137 15197 14481
17241 18700 19068
5945 13634 5235
8221 10028 15280
2717 14068 13877
2805 14926 4083
16231 16570 13174
14122 18627 2544
2846 4780 8740
3430 4313 10227
13257 13708 19435
9804 16701 10163
2377 2445 19237
5675 18969 5086
12952 18334 7347
6877 18688 1803
903 5503 6839
4647 4671 4545
6657 7604 11524
1203 16171 5029
14688 17951 18219
8628 8879 9968
4586 13765 4209
16063 18313 12367
17204 17408 6027
593 7774 11652
2081 9347 1362
5947 14300 14684
9500 13803 2117
14512 16265 2002
8521 13981 2449
8727 11803 17096
10058 10135 12222
3420 13841 19426
15972 17506 3395
116 4591 18643
18834 19090 17514
461 3637 5408
17569 17930 230
5892 14314 11425
15933 16804 9896
14269 19085 11451
4463 14953 11164
6095 12483 17619
10228 16278 2827
16802 17928 1717
675 11112 18024
292 6159 12005
13474 16648 16260
18052 18715 10397
17951 19237 9443
5433 8407 182
11 6375 18549
3628 15981 6505
19496 19497 1451
11728 13824 17156
9194 18995 17350
14191 18323 13136
17872 18276 4755
13923 14084 9237
13560 15024 10089
6371 14964 6980
6762 10914 1710
8801 18912 1728
11478 15653 12433
11814 13659 17548
8722 13933 14716
14712 16241 11904
15688 15980 11333
15314 15982 1835
14414 17477 3943
2847 11058 575
496 4006 3145
8097 13011 17567
4233 11313 7655
12958 16272 9988
9651 9652 1330
1340 9072 3911
11440 16618 10552
6640 16636 6681
17549 19282 10132
15139 16949 13121
7880 18814 6855
5390 11507 3978
10193 17127 7418
18818 18973 6212
8753 19365 2772
2247 2430 11240
3290 13134 3857
17630 18585 239
15491 16151 13893
9124 14519 18927
8285 17615 17740
11619 18195 14650
7990 13176 1286
4233 13758 6727
96 7004 3174
839 17825 17488
9861 11469 2681
11902 17865 492
12112 13683 10634
68 2733 4936
2877 16174 13795
3229 18023 16411
9354 13768 16459
12898 17334 15073
18459 18593 6034
6006 10597 6303
16617 18472 5018
8089 15881 3926
1856 3247 2040
10950 16735 10226
710 2886 16326
13714 17214 8333
8342 12330 4245
8336 15007 16414
4532 16920 7880
7588 15208 5143
7302 7551 1614
17670 17926 12231
7196 8927 6472
16618 17344 11293
11033 12639 8352
19415 19427 18773
13424 16193 11279
1934 13478 14889
8998 14084 9579
1923 11437 6907
19105 19362 15885
9028 10315 3168
17476 19325 18062
17523 19440 15010
12090 15822 18720
16107 18742 5680
2441 6126 15838
7023 13149 1931
7971 13589 5
8093 13864 10948
16262 18049 2619
8861 11532 13105
7808 9905 16388
15982 17166 17091
2558 3959 16073
2605 8846 12230
11948 14396 6618
12684 19474 8585
18833 19156 12386
208 12158 18959
13118 16041 2210
17298 18560 6169
8954 10007 8223
6861 11824 3895
15460 17583 17036
5302 14560 914
1720 11588 15542
6894 14110 399
13802 18770 429
19039 19287 10294
14883 17994 7846
13970 17027 6962
1622 16377 18646
16158 19321 697
1269 16618 496
2984 9074 16473
6879 7775 18814
1377 5602 11422
17194 18908 9319
15313 17020 4626
12526 13653 9654
15421 16682 2210
422 11008 1108
4398 12389 7047
17470 18642 16302
16466 19473 17696
7221 11052 7691
4240 11825 12553
10478 17378 12381
8238 10968 10619
3833 5139 14435
18634 19193 11397
6989 15041 18729
13895 17516 621
8330 19107 5984
6563 13452 15613
4723 18461 8654
10269 15338 16574
16837 19127 1908
16979 19402 10965
12215 18178 9294
4844 12389 17479
9097 18811 8273
5455 19089 8016
2112 3632 2065
18448 18932 17523
2608 3214 6627
15467 19241 15650
6897 12992 15382
9670 16355 19161
5413 9727 19353
7846 17556 11907
3750 11748 14925
12474 13720 18276
11691 14243 12462
17864 19032 6633
1008 15156 14317
11496 18620 7177
13712 14305 5248
6255 18796 18650
10226 15095 7347
12727 15363 5619
18263 18707 6216
16292 16907 10657
5450 10990 1135
17071 17486 4502
10069 17561 1571
5100 7180 782
13573 18628 5949
10981 13217 9438
13633 15121 7881
8476 10422 2520
2371 3167 5841
8766 13791 8219
419 4364 2657
15052 18896 3811
2012 19381 17459
4137 14628 17687
12764 16791 12633
9626 15368 10595
19047 19484 152
17291 19260 15393
8752 17690 17203
8780 17727 1803
6717 19307 10643
17613 17614 10781
8779 12680 3289
16464 18869 6248
2393 14546 10306
11205 14514 3635
10555 19399 17683
14346 15593 510
16903 18418 3228
16973 18629 3442
18660 18699 18095
13274 14162 14631
5566 18692 14803
2603 3675 15603
15250 16355 4361
7136 11286 776
5851 8525 11937
8684 12005 4582
5349 15021 6385
16498 18490 214
14950 18990 1115
8074 14093 12169
5109 9896 16363
11616 11745 15462
18447 19489 4017
13839 16919 14828
6920 15951 4518
14812 15565 17525
6533 7034 19146
18186 19126 5578
14085 18383 12667
4365 4851 17206
15920 18451 2255
10527 12304 13970
57 11468 5235
4763 7452 10719
504 6883 15974
9549 14537 6003
12524 15346 16449
11538 14902 13735
17325 17453 14838
6614 9642 3568
9798 13728 5919
17409 18614 387
9484 17673 6932
7921 9356 11790
1008 14904 10243
1282 18711 10009
9048 17295 2160
11095 19412 8673
15528 15849 8518
12462 17855 14779
9164 13189 6310
10596 13849 11627
1189 13825 7096
6525 18137 5397
11114 13146 8615
13652 17957 14328
11365 17436 19350
15863 18633 4739
6311 10800 5437
2114 19499 1030
5006 8115 19109
11910 16630 3455
14901 17858 13569
304 18851 15716
1814 17833 2761
13028 17322 4661
5914 18148 1813
3835 5153 12683
18619 18656 17354
2390 10061 4243
9143 17736 7184
10273 13055 3930
12453 12655 1985
16286 19144 6436
18657 18980 13213
16298 18392 9803
18587 19355 12962
4059 15520 2764
3306 9452 11420
8087 11509 2969
7223 14456 942
3899 10349 4113
12217 15165 2181
6070 10069 17474
9783 14195 13780
5536 7198 8107
14790 15576 9777
11368 16296 18680
12532 15773 9538
5948 11331 6690
16684 17208 7636
18360 19458 1336
19082 19098 15008
6060 9338 12982
13402 13865 4404
15743 16822 214
14954 16379 12239
2320 7967 7655
2827 17043 357
16762 17959 14247
142 5233 10366
13190 16680 2295
3957 16047 11081
395 7580 17092
5982 13356 11702
8855 9201 15232
1179 16910 4373
19336 19446 14347
6696 16654 35
2798 14900 6765
7808 14219 8117
18251 19256 3354
7356 14300 11632
2471 13434 7772
6832 8658 5259
12832 15879 12720
10702 15706 5427
6220 19330 7558
7539 12688 18176
2554 10832 7698
4654 4831 9510
11130 12640 5284
13532 13683 7231
12873 19125 2359
18785 19074 18289
19362 19469 16636
6741 15514 4078
8655 8814 5797
17782 19360 2567
13552 17112 16456
10498 16268 14762
11253 13998 17296
18510 19221 8219
18213 19076 15331
2283 12994 6052
6305 11529 14403
445 1630 8597
16810 17698 3863
15666 17871 12254
12130 12909 16264
9189 12083 1100
15978 16051 13034
3191 15082 2277
19046 19239 9594
6575 13731 6668
10929 16673 17144
5415 17872 7216
6305 16588 7384
4328 10178 15128
2861 15414 11390
19360 19391 10761
14225 17013 6946
9790 10128 8940
14206 14756 17666
14115 14496 7303
4816 6371 4625
17678 19205 7747
16525 18823 9480
2265 16642 17590
238 5558 7924
84 12794 11128
333 4394 23
5837 16168 14939
6649 11781 1313
7278 7877 5637
9393 18682 14126
558 11467 3041
5027 13817 4480
1791 17496 12239
9524 18582 19055
3158 15501 13616
7452 19232 5087
17186 17982 14153
8390 13193 5707
14656 15540 5240
18197 18328 12805
14049 15760 5015
13676 17213 16238
10399 18854 1103
10439 14065 3399
15326 16982 9768
4215 18296 7463
6554 9859 13844
8396 18801 2832
18967 19126 2333
14339 17409 15660
17652 18690 672
1836 13940 1616
14717 16751 15061
289 9332 7282
6719 10013 3422
2283 8809 13855
525 19224 10774
5756 9847 55
12680 17511 11010
13631 18437 10145
5119 17229 735
8679 18299 825
857 3424 8218
7085 9542 18102
14689 18382 16303
10613 15868 9426
666 13735 419
18974 19002 931
17690 18488 14662
17216 17512 629
6540 17823 18118
14701 15473 15526
4725 8805 1386
16892 18747 4223
10770 17641 1370
13142 18877 2833
6810 9847 3928
4462 6264 9824
13029 15176 17929
9422 16462 13988
17122 17943 4468
11671 18710 5854
9566 15894 2083
5832 13631 8759
7276 13550 16783
16807 17488 15869
2283 15219 6036
2608 18131 19050
4625 7337 15050
6650 7715 9489
18873 19212 1931
9731 10833 6123
13060 17103 19047
1045 17740 13898
19241 19269 12611
12748 13204 6595
4855 16244 7074
2944 10338 17287
13115 17246 7843
15748 15922 3647
15452 17716 6688
3313 19401 10064
5299 14285 9146
10675 17306 11742
19042 19217 170
9555 19118 11655
10507 18987 8945
10506 14167 10682
5728 7886 16648
14072 18798 12904
4890 7003 12876
2621 15206 2353
8932 11093 7640
14205 16749 3810
8953 17771 9667
2827 8242 16421
18817 18884 30
4994 19260 6796
19055 19115 4897
6942 18872 5053
3382 16843 7477
145 15995 7504
12281 17535 17052
14720 16532 910
13677 18069 10010
5289 17403 2590
2753 3211 15370
11209 16238 9396
10146 14328 11245
11517 17911 5607
17336 17478 6860
16984 18960 241
10742 15739 16870
9843 10330 19080
7170 9351 1409
4363 10910 9271
11795 13110 12493
2897 4480 12845
4626 11832 1026
2667 16476 13184
8062 12675 9264
15727 17760 13215
1927 10899 5770
15459 17778 4475
12574 17156 18286
853 10073 9237
8585 12988 18366
8917 19390 7074
14893 18168 18963
9008 11891 6688
7425 11080 3911
15612 19215 4695
6562 9318 6970
8346 14035 815
10769 12899 14059
13128 17036 18859
14328 14992 6036
887 10200 13218
7315 7381 17332
13193 19355 16040
4849 15556 16383
8646 17892 9978
17632 18990 19092
9898 18297 11748
17471 18904 3839
63 11294 9708
3339 14312 572
14993 18803 5963
12552 17351 9091
17676 18808 11615
6282 15072 13296
7186 18247 2474
15706 17323 3292
13696 18572 1081
10827 12991 4159
12111 14168 12799
16384 17533 3836
1329 17794 17387
9855 10348 15045
1405 8713 17846
18078 18875 19298
8324 19416 17044
7728 18592 14516
3035 10154 11922
18574 18810 7249
17521 19148 18416
15882 17895 14024
13075 13610 10922
15501 16736 354
19001 19246 18668
7877 18290 1099
10796 12988 14712
16756 18435 715
3032 16266 18526
3866 10886 14062
13636 19418 13116
14487 14961 12349
18105 18931 3331
6280 8837 2530
17009 18161 2779
6443 7059 10833
3634 11357 5914
16694 18398 12652
1077 9115 19491
18416 19208 11224
15049 16947 9252
5417 16376 9918
3866 13355 5676
15886 17056 1906
12116 15058 14146
13114 16020 5492
8 16167 3635
18641 18916 3411
1132 15700 9580
14451 17794 14593
15174 18617 13864
16866 17997 2018
2748 9997 13329
16833 18910 7984
1024 11267 6275
5668 9777 11192
12967 18350 7270
3535 8615 18426
4080 18267 17333
3313 18729 13436
9729 10150 9734
11277 15880 17499
3656 8952 8817
5823 18121 154
7889 10493 3347
12565 18958 5004
12378 16907 9573
7397 8386 6204
13066 15318 2505
6465 11931 12343
17995 18958 5311
2021 13514 1397
3395 17352 6746
12250 14979 4360
10170 12480 11153
10308 13665 2913
16164 18875 13031
11743 14356 16142
9182 10880 5312
10093 18427 6580
9440 17654 3252
15532 18374 18545
17670 18196 13464
16342 16846 10368
16614 19306 17068
17815 18690 10076
4819 14518 13824
1498 12625 8153
5611 12502 17307
6932 14949 1076
10006 11467 3972
3553 9250 5017
2751 10609 15353
6658 13163 9917
12826 17528 10020
4937 13075 9043
10513 18419 945
2269 11519 582
6877 14844 11869
2591 6520 6096
19095 19494 17354
13248 14049 6507
7446 11609 1713
7102 18322 4052
12917 13827 6385
8745 15084 10346
17502 18752 2338
17757 18810 3614
14132 17342 9756
10064 17581 2001
3143 4307 12193
2616 12790 18501
9227 18464 2196
19289 19332 8910
3638 5439 18547
14879 17950 17465
11104 15529 11615
1263 13695 4606
11453 11556 9292
13444 15605 5826
16399 17432 12119
15772 16529 9258
18438 19317 325
18057 18921 719
12715 17090 8974
2042 14306 17971
2020 12126 14839
10791 16292 10649
16957 18303 5054
17696 18914 3703
1615 19499 9514
57 13444 8743
13634 15828 6434
7298 15057 4148
10796 14912 10760
7219 14532 1725
9721 11734 5092
4768 19219 15689
11458 17375 7612
1582 14552 5894
16019 16336 8147
157 8558 8580
3674 14349 4587
458 18610 18422
12520 14866 19145
4221 15302 7333
15190 18465 1995
6837 17531 5157
18568 18970 2412
4532 8077 870
13844 15208 7364
12675 16306 3610
7199 19063 3198
7283 7730 8418
4116 12719 1179
3058 4784 18038
7188 10659 19120
13923 14563 6801
732 14732 4648
8869 13941 18552
16560 17374 11507
18527 18796 19290
16705 18445 2573
5459 10443 8974
6628 8512 14172
14236 16280 13695
5855 16397 12155
4305 15094 7192
2631 8729 5807
8313 17909 236
1744 14365 1442
8334 18706 13479
3332 6068 3709
13688 15306 1551
7316 7527 19323
11034 15238 17160
11209 12713 9125
5416 18109 17191
10225 11200 18168
5033 8399 2852
15287 18387 18651
12611 17543 12166
7181 7295 13073
2594 6040 12767
5473 15654 8266
6075 8425 9837
3092 6078 19405
5725 15117 13122
19399 19485 11310
6917 6963 1756
17021 17853 3475
4861 7008 8533
5924 7348 17980
12935 15987 17361
14004 14068 4069
19206 19315 17980
26 16805 2450
12910 17324 18309
7856 13793 9588
16849 18611 2977
16469 17055 9273
118 17533 8088
1712 1920 12718
14233 17711 5117
9887 16242 14563
16630 18819 14846
3294 4854 16219
17990 18294 1216
8861 11314 379
15459 19012 9642
5629 15187 3466
7714 12809 8593
11699 19442 17096
6724 10717 1116
10271 11813 1991
2742 12289 11421
7969 10458 11521
2437 5985 1180
12734 15572 19415
11154 11361 7731
12751 17712 8155
8598 15090 8771
7758 19045 9697
13250 19154 17456
5813 10571 3005
2357 12974 15846
5885 14681 4351
15989 16142 6718
3787 15109 12466
6165 13990 10749
15287 16223 17678
11677 14436 13532
16899 18337 7716
1884 15791 9549
3915 8598 3920
15154 18847 14294
5073 9312 19265
2144 18018 8144
17244 19386 2711
2522 11569 9411
13498 15018 6240
3713 15129 9782
15932 19231 7588
18790 18899 1765
9421 18373 7455
1731 17544 17332
11793 14625 6692
10404 12807 15551
19381 19420 10324
4597 4612 6965
9213 10466 6602
7063 7759 8821
1119 5095 7128
6793 16459 1887
14645 15164 2348
12827 18216 8595
2551 18524 13342
5477 18397 18615
10840 14783 15930
18243 19328 18258
2470 14903 10405
17081 18313 14415
11451 14200 12705
12112 17787 4578
5897 12966 12799
11578 13642 1242
11118 15125 16393
9159 18590 6771
11877 14550 2671
6670 8944 18679
6754 13884 7696
17943 19321 252
19327 19377 2254
11703 19358 16070
923 3733 17595
187 9059 5120
6181 9253 12163
17217 19241 4485
8793 17791 16891
3213 13786 7219
4644 13796 1703
8212 16444 4082
5572 9994 16167
1087 14997 17064
7784 8557 18769
4232 18320 15898
15120 18960 9291
6748 13336 4741
19383 19401 10973
14371 16906 9474
7293 11774 9654
462 7479 17220
10839 14241 422
4910 7206 9305
9051 18040 6753
209 1297 12820
5290 9835 6951
17056 17165 10568
17443 19155 18862
17275 18654 12106
626 2647 11392
2822 12150 11668
18281 18714 9009
14535 17748 4949
6020 10043 4043
4028 11015 10412
16782 17735 2423
15115 17019 6608
17897 17938 13560
15673 17331 13653
17718 17719 2259
2599 12304 12487
13053 16807 9422
9035 16538 16735
1728 13463 12208
4315 15881 7370
17838 19213 17698
16775 17899 3110
9934 10749 12492
17036 18172 9006
10387 16034 9468
3118 16966 13091
16540 18591 5975
16714 18108 10106
12778 18803 4659
13330 15810 12810
11562 11566 10717
2678 17733 15208
14168 18372 15109
15936 16308 9215
16796 19176 838
4835 15011 3011
8545 11005 3743
2867 7325 2788
15835 17062 19318
18215 18490 8724
7950 9165 5766
17295 18596 964
18176 18646 16106
2936 12270 17043
3192 9436 13827
4841 13260 1810
11636 16141 14681
10343 10720 6796
12053 14169 792
4193 18545 7002
14920 15683 13514
5567 16572 2543
14868 16524 3813
13390 15519 15913
11800 16121 10428
4536 9576 2538
18821 18928 14943
4586 8355 9429
15904 17671 19373
11123 14922 19263
6844 8292 9238
13021 14725 13006
12176 15082 4616
2892 12007 11641
10613 11805 14959
4360 5529 14684
7671 18682 8078
14635 15156 13855
16880 17398 18189
17261 18565 15264
18316 19107 7507
9707 17381 16724
12389 14807 5414
946 7677 17304
1591 4626 15372
2196 3885 2654
1747 15681 17161
764 15380 13463
16456 16710 11104
15478 18995 12177
14999 16967 17955
16669 19377 16355
5558 13128 17225
10380 11188 16312
11499 19215 13373
9095 16899 15443
11152 14624 12190
18389 19036 12229
18218 19260 18534
4405 11804 5785
16980 17638 15026
13120 17414 3401
13937 14589 1725
12992 14135 13491
4945 17715 887
16415 16892 8797
16243 17982 663
16597 16935 10886
4393 16636 12222
17360 18103 17268
12175 16118 4477
6750 14918 15862
8460 18062 4964
9701 11173 6093
14949 19033 6716
14504 15396 5981
18811 18930 14943
3941 8830 2563
9005 15628 16774
6165 12347 16344
12611 19483 11523
12275 12448 14214
15030 17794 1860
3002 16039 13583
7392 13892 10123
12154 18276 7577
2628 12786 12415
315 10278 8012
14834 17903 18317
1465 16443 1059
3339 14633 14632
13281 17510 16581
7877 17638 12387
10236 19398 982
3809 18981 7836
18470 18579 5747
5817 9278 4009
229 16759 19450
18915 19412 8788
6725 14509 6782
5815 16127 17237
6476 15400 16398
13360 14776 17529
4274 15397 9943
12298 12801 9502
12988 18356 7317
18219 18518 5435
8219 18537 17958
5220 13405 17449
13270 14131 11416
15960 16374 15562
14419 15849 9102
11210 18305 8216
2892 11175 15853
14364 16253 15193
16742 17058 3097
18462 18872 2343
14592 19345 4485
17640 18395 16314
17349 18590 19498
10878 15584 10692
14444 19284 1036
12875 12917 6300
4366 15889 15518
7525 14467 16092
14185 14831 1867
19211 19447 19
17643 18452 8130
10123 14538 10152
1234 9314 15302
14809 19000 5339
17323 19117 19300
2795 13790 14253
3904 18117 5838
8713 16637 17353
3257 9943 15680
808 10643 8942
17043 19438 7622
7658 15553 17514
18884 18890 15559
9276 16799 19011
14165 14374 5020
12809 15266 1904
14615 18971 9589
15666 16333 3540
18865 19095 8128
67 6054 12499
8013 10108 229
13701 19049 17489
13608 15414 8070
5616 17759 11900
6172 10008 14798
3601 16880 6629
16429 18483 7736
9971 16855 6753
15116 19082 12036
14802 17442 6741
3613 7917 17611
15223 16435 8876
15008 15565 5761
17373 18126 11998
7706 12565 10146
355 9829 8983
17001 17192 2973
5506 7461 8105
13916 19130 13785
16399 16546 6001
3234 14815 4543
11702 17196 10225
3339 4094 7549
2169 3394 17120
17960 18061 6364
9224 11567 10023
7366 18617 1575
3681 15197 9903
18685 19252 6305
9506 18051 4897
869 8636 4257
18177 18794 14282
9625 16295 6632
2748 11381 19003
2390 9325 7639
5461 13538 6560
8606 12583 17174
438 15568 10028
13354 17290 7993
10404 16858 2793
1812 17511 8978
4977 16507 3375
16308 17531 4396
17067 19057 7637
7487 8184 15348
19236 19462 13058
12260 16765 19426
9161 11033 9699
16522 18234 7209
17632 18878 4129
13404 17029 6101
14697 16930 212
4240 9710 958
7543 18418 1069
1840 7149 18793
400 18623 18227
4014 14906 7125
13033 16682 7062
13920 15513 5873
7219 11219 14001
5549 8848 15770
2357 12222 12941
10799 14828 2951
12563 17102 9579
9501 12151 11083
10993 19495 10162
3795 10208 7485
9787 18133 2981
1950 3463 13440
5107 5728 6394
11022 13002 14758
11400 17606 5137
2085 18010 9339
15232 19263 7035
579 3147 19328
15011 19253 8549
19256 19416 1260
19350 19379 18693
6229 17640 6728
13455 18210 3441
13055 18342 9830
5739 18237 6574
2530 2842 8403
7061 9606 4591
9424 16092 18370
3407 13236 5755
11546 16650 6342
13900 14581 11149
2443 7146 4299
6601 16406 5222
7934 18678 15517
11030 12110 15346
11665 14721 16005
5204 15536 16356
17610 19333 17473
10788 16639 7531
10320 16112 7169
9344 12135 11565
539 1910 4990
5037 15227 6831
11495 15691 2388
14818 18375 7657
12447 17863 7346
8276 18372 14726
8944 12956 328
4431 13597 12659
13309 14628 4828
2248 19034 5685
4679 16538 19043
18756 19272 11757
9128 10840 8398
11209 15774 186
1513 12978 8589
13333 16402 1242
11279 13658 18425
12619 17542 5560
1086 1898 5922
4210 5394 8602
3247 14148 1639
11720 13190 4410
10342 18225 5197
2216 8320 15851
17789 18179 1661
16052 16101 13140
11016 13081 5713
13530 16268 16244
9560 17617 6168
13421 15914 5402
17169 17919 15779
9141 14320 14658
3374 13434 11268
3024 17645 18368
917 8425 14638
4744 6693 19247
9223 18249 18003
7349 8652 5968
9903 17026 10606
736 1317 750
19427 19459 2864
11711 13395 12356
8247 9990 6338
3064 9824 10584
19014 19352 9898
11914 13217 10973
6110 19477 522
4709 12838 4048
3736 11394 9130
11622 15809 3232
11688 11845 4358
11083 13131 14518
12559 14848 18754
1457 2683 5117
12378 12673 11776
4331 14004 9799
7823 13299 4670
8633 11185 9736
4877 13997 10556
13474 15240 748
11248 14752 14887
1813 19110 14334
8657 12969 6463
2853 9255 4537
13192 18798 17124
18235 18298 18504
16992 18124 1666
4348 17428 2682
16541 17036 17048
9675 15369 1220
404 8738 17071
19076 19385 4074
8689 15203 6177
2279 8059 2059
1529 19236 12125
16259 17776 12963
18283 18326 10420
6986 8791 12604
4189 18996 17749
18735 19020 6392
442 7116 13291
11883 14879 6390
3389 14027 14968
12942 17250 13793
7630 13005 4814
12309 18753 5268
8458 18442 1896
13096 14790 12716
12390 18796 1085
13017 14457 7683
14541 15393 9114
17082 18090 7287
18063 18500 18009
16773 19134 11875
9410 18008 4997
8690 18688 6958
9026 18859 13758
7423 14347 15771
17387 19498 13009
6558 13046 723
7378 8818 12393
12399 18630 7016
10001 10818 11466
13459 14393 15337
14703 18692 18755
17705 19316 15315
11011 11273 12822
7883 14498 12469
5500 11629 18872
15092 19293 17726
1524 11069 6497
1225 7302 14276
19151 19421 1568
17137 19082 8808
7320 8197 12237
16453 17009 15547
5173 16058 7047
7817 11100 6020
19014 19166 16728
17013 19359 11063
5998 17723 6761
10702 17907 9618
6852 10720 336
5618 12540 11093
11391 13282 17230
9157 17070 17342
16811 16918 12273
9723 12329 2100
12667 18458 16918
8576 18281 2827
10383 11659 6689
5870 10815 3160
16413 17341 19095
9451 11958 2871
9305 10692 3571
6507 9472 15986
1521 3783 10454
2151 13355 6478
4082 16572 50
2841 8790 14006
6207 8591 13411
8186 13239 17701
11862 14855 11560
18279 19360 4576
14363 17719 8639
2968 4717 6106
18968 19083 88
6355 9742 16919
10065 14388 7078
4393 13878 6387
17032 19092 19218
1186 18548 17288
15821 17874 4328
636 5281 12002
1890 11434 6383
8802 12706 2800
18873 19188 17586
6768 15103 17569
9321 9769 11044
19113 19292 9589
1551 7557 5456
11914 18188 12038
8972 14155 16391
2315 10053 737
7256 12154 4004
4732 15972 1185
15885 16347 10939
2222 18007 11065
1754 12462 11967
990 17296 8516
6760 7699 1927
11612 12343 16882
11986 14377 7539
15525 18464 798
9249 14851 1592
8007 10415 4017
6506 17888 12253
5482 14082 2436
6628 9740 16103
10499 17450 8918
6360 17632 5101
1064 13718 15414
4802 9845 8473
5285 8404 13776
3972 7926 4449
11480 12228 2266
1418 1489 12549
12041 15760 5808
6894 13045 14900
10720 15402 581
13992 14953 18104
3638 19433 5607
3318 7660 14769
10690 14112 6805
14727 19342 16541
9475 17536 1437
7773 8300 11634
4735 12350 14539
13041 15263 17331
11 15872 13676
8429 13482 14973
8117 9732 13288
12216 17013 13166
3355 16700 4851
2539 3810 16242
5331 6211 5336
4403 5160 13960
7507 18449 5771
16254 17257 9185
11809 13230 11397
6994 11638 9551
18853 19260 17848
13691 17381 3751
12375 12647 9268
8361 18614 18200
9587 18603 13962
14165 15583 3473
1716 14046 17236
6262 13709 7176
13299 18212 16484
15451 16165 10677
18270 18511 3285
10053 12238 19264
15954 19316 123
7157 13457 8850
11958 12718 18291
18518 19342 18308
7581 11458 12865
8296 15381 15668
511 10796 3375
5784 8745 17633
728 1299 309
4672 19425 19347
2979 11652 6441
17684 18633 969
7087 18156 16713
882 5717 1240
6521 19351 15862
16778 18865 10770
12306 16094 1125
1742 13583 3790
18712 19413 9254
15410 18912 7297
11283 18523 13661
15128 18373 13253
19212 19474 10420
10936 11488 9330
10941 14243 6358
10807 17873 2695
7924 12095 7963
6901 8307 7975
9526 18593 18652
3047 16773 4945
1523 16917 5555
6124 13031 10074
10697 13380 13451
11006 19226 7997
8292 15199 10151
7169 17971 11822
3984 11912 55
4764 16540 12321
6561 16104 2972
14775 15724 18766
5743 13764 13815
16908 17202 13122
2980 17592 12690
2005 15231 13660
5728 5808 3070
18159 19079 3223
9718 17387 4262
11210 18628 14883
17595 18072 3536
8104 16413 19320
9382 15842 3097
14228 17320 18314
10205 12311 5804
2043 11396 16694
7809 17067 14122
6378 12738 3258
13788 19408 4301
18701 18935 11492
5890 13211 14301
4083 16016 13771
19044 19463 2263
6379 9762 18736
1952 18992 5474
11525 18360 5735
12448 17325 36
17674 18323 12514
4126 13115 6700
4501 5107 18893
19351 19437 4143
16801 18869 18097
4793 6605 16086
3087 16744 4473
3456 13262 8261
13700 18601 3816
8069 15603 7242
5870 10768 17963
3376 14188 13399
6794 8412 14050
11167 14027 14343
3724 6170 2697
18170 18732 5387
9908 12218 15451
7950 9227 4069
12162 13413 3883
774 1850 17447
13659 19332 16498
303 15501 193
5614 16594 3870
7035 18389 6532
15209 16219 8166
2850 10639 10461
6159 7680 8757
7089 7183 5367
7761 18318 14785
12598 15112 5708
19241 19444 10947
6406 9998 14931
12453 13230 16153
1986 3702 6996
12321 19027 9889
17095 17817 13465
6343 16743 6990
15959 17635 14267
16951 18307 12021
3479 11481 12624
5845 6542 4168
6328 16320 2894
15899 18662 14612
13869 14435 17089
11112 15283 16016
19333 19367 4141
18961 19002 8774
14675 15193 2547
17142 17358 10185
12220 15900 14887
9960 15833 19416
19398 19472 4277
11469 13158 11462
1508 12224 11837
5831 16615 8067
17196 18072 6508
13205 17784 12963
16149 16946 8542
9708 15928 2449
17837 18767 6712
452 3394 1128
316 18814 1863
16004 18490 14375
7960 16018 16002
913 937 12550
10021 16717 707
12172 17985 2657
8546 9968 11791
16469 17224 13003
1474 12298 18281
12837 19483 9952
2030 17677 14499
15783 16851 12122
10599 13680 11582
1139 11950 19288
9054 17215 5991
2229 9851 4361
12522 13855 16996
4157 6012 9344
1370 17249 8634
3241 9926 19460
8255 16603 977
18066 18577 14761
8182 13186 17396
4728 13975 17748
16716 19354 10897
15132 17592 13613
4339 5232 372
1352 16583 17786
4383 5526 16233
3052 12933 10497
8151 9323 12866
18029 18491 2609
19429 19458 12138
2915 8834 11734
14352 19015 1009
8462 10896 4133
18799 19019 17850
4438 6384 4004
10667 15833 6735
11949 15106 14244
10097 14530 847
10078 14857 4746
15960 16355 2362
6972 16532 8154
11569 17532 9176
16544 17912 6578
18980 19321 17727
7259 11978 10230
1568 13661 8241
4076 4366 8570
8241 11257 15093
13380 13851 12180
8632 8853 3076
18356 19421 9241
19238 19400 280
1279 1340 8189
893 8178 9585
14024 14067 1971
16825 17092 18162
560 15465 11389
8930 18266 1811
2114 5801 10061
19088 19327 13476
3983 18279 13306
3831 18391 8786
9745 16614 1588
811 12317 4894
7857 8707 683
17095 19467 17189
15325 19327 5276
2238 15136 6051
186 12526 14786
15243 18065 70
10777 13622 3294
17406 18612 8340
8752 14155 11110
1143 15143 1683
5066 9381 3897
6204 7378 1120
12877 13611 997
4796 13320 19114
14877 15234 7518
12791 14607 4698
704 8959 7675
14801 15235 5170
8992 12288 1467
15338 17027 14040
18945 19118 14363
6170 12788 728
6170 19288 16334
15863 16274 12030
10126 11094 4787
6286 9727 10388
13798 18931 3731
4796 17136 10975
4127 9505 14062
585 10256 7388
18778 18781 13978
9842 13508 9881
5946 8086 12783
17208 17815 3753
10934 13973 3552
9082 13207 10788
1056 15973 1046
13367 14948 6712
2540 12536 5560
629 12197 3537
5761 9504 14052
17163 18813 3308
11137 16305 1407
10135 13822 3588
13205 14626 13636
13659 16744 1015
1483 12282 745
15364 19080 7294
8984 9776 11231
2301 18863 10194
6920 14829 306
7277 10148 8775
11516 14525 467
157 671 203
17455 19338 14861
17741 18684 3849
16117 18588 12893
970 4921 14726
89 15228 1367
17153 19329 9270
18303 18429 16587
4174 14361 6040
10457 14321 3991
3632 7407 12658
16036 19344 10006
13390 16570 10938
5070 12103 7321
16558 16600 777
125 11116 3
1176 5358 1159
9285 16692 3594
5954 11194 5126
2226 8559 12802
6440 18378 15349
10861 13346 11346
11344 13329 2426
3143 8841 16159
9958 10125 11474
14157 15566 1302
13377 18027 19424
644 17086 15481
9438 15364 373
15245 15878 16610
15170 16872 4953
2965 8545 7055
12009 17889 10929
452 4996 6765
15721 18911 17327
4750 6079 5911
9194 10104 14035
6017 6178 8574
15975 17022 9358
504 1276 11655
2080 16180 14988
9787 13358 7493
15003 16367 10909
16466 17449 1293
14013 16340 17902
17548 18046 17699
8597 13531 6939
15297 17344 209
16888 16899 12433
5571 9576 7875
1430 8996 4181
2358 8102 13447
4056 10980 16651
15134 16716 8970
4536 10401 7910
319 3989 13974
8375 14706 6981
14593 15966 12617
8712 18974 9122
3846 17932 46
6015 9932 13359
8405 16602 10140
18872 19450 3474
8396 10553 8692
11730 15065 11853
19256 19406 665
5998 16653 3757
12320 18740 7769
4648 17828 1309
17338 17760 11427
5301 6229 15039
3490 7216 18411
16986 18717 17755
11638 11681 3356
14964 17600 19493
12839 18066 11460
7260 17153 17113
1682 18694 18199
8547 8561 18408
2709 17476 3482
5284 16014 4039
2883 13406 6732
14995 18065 15617
3084 3129 10622
2458 18325 17909
12952 12956 12197
4941 12540 18863
16485 19470 2547
13776 14137 16404
14285 18698 63
18087 18779 12150
4788 15757 2906
14803 16170 14163
13944 16639 15276
10215 12066 3735
17918 18979 1003
17626 19491 16213
4909 5615 2048
8268 15443 4055
19044 19317 6492
16588 18584 19355
7262 13176 14122
12498 12949 17781
12385 16226 9136
14454 14788 493
17766 19355 14933
16808 18174 9904
9961 10461 3896
4925 14011 14080
7837 14392 6996
12966 14664 8361
4610 5696 17475
12013 14458 15915
6369 9913 3479
8671 11322 16599
7770 8766 3696
9025 11247 17757
13357 17028 9071
19265 19481 18325
2697 6150 11839
8691 9019 11609
5554 14398 14558
13840 19316 17669
5078 16625 2884
9254 14997 10731
14510 15886 4081
12170 16932 13079
8321 11274 1202
2811 13533 6345
16753 19352 18018
3484 10162 15768
6645 18200 6735
8584 8640 8125
6716 8993 6861
8441 11422 17882
2610 3242 15070
283 10975 10346
1236 18602 8769
11733 14462 7936
19257 19262 1760
16123 17366 3948
12212 16857 623
16448 16535 18900
4132 8039 11593
394 1521 15862
18048 18797 6755
12218 15045 17232
14177 17112 15549
926 11945 19198
18621 18749 5099
1775 19315 4976
6781 18380 13687
8368 12983 3289
1432 17417 10174
8439 16007 18217
14522 14999 15091
8996 18348 2395
3379 8664 9037
13595 16755 12993
712 12802 3879
4561 15145 6922
4791 7864 13112
3609 17158 5100
6393 16005 1615
16838 18005 1900
18472 18972 3035
6622 17547 6151
8578 16201 14770
12302 15461 15921
13069 18029 18397
1425 8369 18477
6809 16651 367
11277 16994 2896
306 12843 6077
18205 18995 13218
12636 18903 2386
10882 15794 6204
11154 16538 13446
16977 18161 18685
14391 15436 11480
3884 10346 12269
7607 7840 7639
12392 13569 16337
1200 13343 19371
5145 8590 7058
2611 13259 18229
1596 1768 7132
9260 12906 18604
440 9192 11523
5272 16365 6655
9907 14004 2300
10601 14833 2929
5077 8075 3930
3187 7997 11835
1634 15215 9315
16723 17926 12931
12455 19342 4550
8599 12437 4897
10283 11153 8932
14323 17620 11793
6333 16891 10032
7487 16361 16757
10420 16134 2352
706 18490 19476
7656 16093 17934
12413 14173 19074
12578 18627 16316
12030 16237 10714
8600 18213 466
15161 15658 12410
1999 5475 4216
1192 3078 16488
12829 14217 17791
2432 7714 10889
1710 7464 6622
5820 6934 3524
1508 13531 13803
15317 19034 3509
16085 18953 16156
9561 10982 17325
15510 16769 17682
12324 12587 9387
13295 15740 9864
7494 16402 10998
4392 12263 17550
10842 12773 5110
9161 15927 15174
11344 11979 6656
13207 18345 19290
11605 15875 17445
10409 15960 1356
12449 14290 14986
9448 12787 19139
8951 10003 7318
10944 12975 7167
14935 16824 14820
4086 4929 126
14094 17222 19207
576 3757 2341
19116 19310 2327
2228 8116 5040
18325 19252 13154
10672 13493 15992
4506 16346 7658
13711 15702 9599
1286 4982 11918
7285 14621 7079
15074 16296 7660
2990 4860 18011
8060 10485 13923
19358 19397 18609
4514 11597 11326
223 9622 6784
4924 18829 12803
12762 14459 18620
14203 17278 2480
12528 17845 14289
2101 17616 13234
1312 10999 14401
16166 18463 9409
419 17758 2616
17028 17906 4100
9796 10121 17670
10536 17148 11778
5159 5290 2522
8388 14088 19170
8250 16096 18714
6509 10486 15777
11523 12425 16497
3001 17983 2483
4848 16491 11152
5357 7510 13329
1419 5450 17007
983 15680 17854
10711 17913 4590
18972 19034 11008
1815 18810 16673
16913 17351 8505
5741 11795 3236
18832 18917 12272
3133 12939 6261
19418 19459 14362
16156 17427 1538
2541 6839 9507
14316 17205 17592
3306 11593 5605
12095 15041 265
12547 12817 13216
14424 16154 2344
13800 14010 15374
1156 14165 1546
13664 13747 625
6554 17317 16259
2772 16256 11870
18754 19223 15204
10433 13329 1224
5297 9866 10482
9612 15074 11374
6915 8825 17640
18546 19059 6896
5024 16853 5704
17139 17230 18924
5699 13306 8114
8896 10262 17307
890 5257 12016
849 9499 6751
16429 17880 2661
11366 16323 15799
866 3228 185
9101 17985 7127
15794 16432 6113
15763 18658 18190
5542 17953 13223
15912 17289 5308
6964 13879 19359
11748 14178 17410
8923 11164 8014
16219 19017 13039
11601 16624 8577
18163 18440 12018
17798 19215 2314
3850 15244 17382
1196 2199 7279
11673 14291 8792
5147 6665 10568
10028 12511 10534
18405 18865 13153
8805 18021 18541
1795 9666 17986
2108 7763 11460
15812 19158 1497
17387 19289 19189
9945 18991 8308
3702 14186 9643
19410 19434 6704
14437 18974 12484
5638 8899 14547
9975 16824 11694
15588 17375 14644
13993 17834 1793
15508 18410 18058
3713 13933 15452
14121 17194 11447
19332 19421 13787
14859 17304 17458
13532 14598 9975
1904 10421 6238
16681 19151 17593
5322 5606 3874
3820 7612 9830
16158 19343 13067
3771 8283 11019
11917 17473 17960
2989 11584 3294
3388 8227 5418
12609 17889 12316
7982 9642 7224
9150 12148 14795
3440 17576 16043
5096 11221 12105
8306 11398 3007
4661 6438 16665
9821 14255 10686
8308 10464 7288
18376 19294 6708
7133 18902 8809
7286 14933 18342
6967 11598 19259
4411 14382 2053
14029 17558 2079
9146 11871 16577
7848 7986 12472
18870 19248 4583
16183 19413 5060
13497 19404 7388
5125 11697 7575
7079 15576 17310
14169 17099 2954
9866 18522 615
10654 14146 4157
5443 17299 13650
16088 18351 4418
711 19269 11108
3965 5052 14258
2056 8424 12945
16207 19468 11855
19220 19232 5975
2487 9518 8078
1332 2347 16874
1652 8220 10353
18796 18902 2217
6410 9195 11741
14126 17256 13969
2026 9397 8957
7909 18159 14810
9891 17335 8041
5501 5900 16061
6282 8187 18135
5207 8752 733
1483 9937 6943
529 1225 3640
6619 18629 12751
9691 17762 3418
12299 18221 5770
51 17595 8029
17468 19416 18138
7160 10099 16806
4297 5898 4575
6633 8079 8730
1714 2911 2806
13428 19091 16345
12727 15028 15839
7969 14209 2484
3378 5445 1418
13243 16762 5640
15003 16911 17827
11861 19135 14880
8840 11206 13988
9370 9947 11877
3430 6918 5868
14903 17342 2770
2731 12067 6356
18650 19263 6309
1414 7134 12334
6981 16229 13746
10671 19410 13541
3384 9769 8692
13084 13404 16492
13975 15881 3671
19092 19124 201
11875 13583 1712
15615 16618 10658
7241 17851 5381
896 12072 3420
4663 18061 14461
8749 8954 4035
3188 12532 16321
11604 16785 11072
6384 12319 13329
181 10761 2801
8787 18594 19463
11392 11641 9641
12425 19191 17915
5875 15202 5715
16050 17820 8382
5019 11418 6851
14117 16405 1989
5352 7073 15174
15374 17473 8038
583 7104 5540
4634 5231 383
15125 16354 1820
11732 13880 3567
4525 7780 6743
15977 17765 10199
15647 15945 18990
1521 5873 7109
5069 11355 8796
6511 13699 7282
14813 15726 8531
18541 18640 12470
8278 16077 6588
12360 12432 15273
19377 19419 10044
4381 10720 12298
17622 19106 9331
8763 15827 2737
8031 14284 10661
9165 13581 3691
12715 16135 10576
17958 18057 11726
9070 12609 17476
629 18462 1386
286 6246 14462
11670 14545 19169
5479 9562 11792
17962 18667 16869
6324 11780 12234
14160 14807 16052
13965 17940 4734
12597 18383 8130
12077 13794 2530
19130 19470 7189
19427 19499 12316
9355 16014 12496
11916 13433 394
6301 13566 173
13755 17955 6333
6319 10738 16072
981 7191 8038
11197 13461 8278
9149 13899 12061
5018 12230 11395
8125 14575 18754
436 2886 6852
5679 8800 3987
12155 17298 5152
9762 15964 158
1856 14801 18455
18644 19011 2993
2511 7012 11702
13095 14158 3029
3589 4915 12332
994 4262 7954
17951 18241 4929
17735 18944 9422
7042 9198 2173
2312 11638 14562
9945 10766 8688
14245 17764 5398
6442 7399 15465
3990 7207 15085
13187 15256 10696
6025 8680 14861
14385 18074 19049
17157 17902 4296
14767 17993 3276
9363 12917 16649
5932 18018 4956
3429 7885 15869
11782 12469 1799
18584 19062 3755
14621 18843 6231
7146 9022 9930
11973 18830 16581
8532 17491 13272
13918 19321 7588
7251 11093 11748
5005 15637 2834
10267 19489 14588
7990 10765 8271
3834 16402 1347
5938 10923 6263
11911 16011 1856
18229 18245 18445
10913 18137 17052
12684 13798 2645
14890 15356 10825
4612 16395 11967
7045 7664 2549
15553 18848 8562
7914 13032 12953
13107 14484 18091
3994 15327 17541
1046 1568 5253
9728 18915 14165
2118 4611 18528
7927 9749 6858
1161 14358 15545
12488 16018 16863
9575 16719 4532
11593 13343 13030
8622 14720 8185
1286 13271 16844
11524 18031 18590
431 763 11770
5373 8810 17234
2960 10317 10847
13762 18755 9856
14762 18581 16201
16396 17895 18801
7585 18473 653
3121 11370 13107
4962 14287 19079
9262 11667 6946
12407 13174 475
15839 17898 6687
8257 9190 17198
2861 12997 18735
1691 12910 18230
8343 11494 16421
18962 19202 10649
6303 14560 17624
2575 18804 18609
9432 15654 18685
5891 15063 17485
9200 11914 5681
10735 11994 2
14520 18874 12158
4280 11428 13541
3921 14636 15625
1721 10342 11757
7337 12684 14559
3103 4493 8322
5219 14474 16676
14767 18253 6413
6046 17138 5696
13859 18815 17782
7974 14349 2062
17484 17756 1678
8092 17202 9990
18893 19341 17121
9247 13574 1542
17001 17611 12793
7080 10034 8227
10023 17328 18247
5272 18560 17964
1500 3691 19100
8976 13725 7547
18946 19175 13854
16704 18495 619
19331 19443 2858
17700 19235 10527
10200 12655 13369
13645 15079 1142
13783 16840 14338
11500 15016 9811
14039 19202 7229
11477 14322 12049
8063 12875 2468
4397 6020 16360
11696 18305 12990
945 3673 13544
16512 17816 1225
11235 16163 5065
7526 11408 5256
1824 11590 2069
3522 14368 3959
10429 17088 3370
1425 3718 17826
1585 3691 7548
9930 16589 16795
15440 17824 9180
12076 16738 16776
2716 18132 2830
11747 15111 163
3391 13441 17994
1986 7794 5779
7718 14697 3274
13921 15058 7032
18294 18878 10575
15863 18434 17421
6059 18198 15385
3093 14503 12141
19442 19463 14321
15311 17214 14266
11071 14148 9417
14221 18264 8624
13577 15950 7271
2524 18596 8930
14771 15189 3838
18997 19388 14478
2984 5549 16060
11548 13449 5185
2234 16605 17123
16124 16586 5023
4772 18031 10068
14576 14702 13985
2526 7879 2590
19454 19470 17337
4954 19366 17569
5847 17054 11161
14251 14834 16680
230 15974 13771
2942 10530 13498
9810 14619 2148
11435 12093 18458
10714 12366 14103
14687 17187 2322
17717 18680 16627
4107 17872 2323
7389 12295 7132
5647 14589 14363
4261 11264 16141
4784 16341 8753
9259 19491 8029
3235 8396 11823
10214 14501 9162
15926 19053 13975
9372 10785 13075
3110 4449 9177
13480 16614 16521
18531 19341 17675
2156 5738 19171
14787 15521 6783
16876 19384 14519
4059 15330 12926
17605 18226 3305
10936 18486 12397
11725 18756 18219
1184 6231 14454
17064 19242 14648
683 12999 3140
17940 18594 15958
15375 19078 17226
4087 16061 11076
7460 11314 13133
7070 10063 12001
16821 18361 6987
10976 15658 13123
12236 13901 3599
13883 15790 12817
13013 18761 17539
13089 17190 6820
18484 19357 12713
16310 19004 764
3039 14251 15780
18681 19371 1810
11271 17292 12918
18546 19411 1520
1302 15502 15750
15260 18782 6773
573 13161 10938
9027 15299 11480
11156 12723 4318
999 1249 11023
2453 5125 8917
17624 18742 5766
1457 13841 17787
13580 14302 1837
5960 17104 13128
13080 14978 16081
13009 17780 11044
13135 13838 14523
17167 18154 2023
17369 18089 14863
8230 9115 8958
11833 14601 15773
4439 5375 8733
10136 11633 1168
11684 14274 18418
10964 14772 14212
1365 5303 13534
1749 9699 15996
4875 18335 4482
11340 16314 2445
8236 15271 18860
7027 13243 16830
14977 16781 7560
17952 18162 10420
16357 16543 5998
18865 19306 14394
14066 15688 4485
12976 16133 4684
17495 18301 6775
13252 14306 305
15651 17152 3927
3498 4094 7003
8102 10278 19388
14735 16726 11462
667 17597 15120
2355 12904 5882
17829 18918 6679
15414 15704 10793
9729 17944 585
2076 3304 11036
9278 16880 2706
4565 12611 11535
12328 18487 16219
16737 16818 3300
1204 13653 14472
1065 15145 14597
11290 14696 10325
9626 13609 17234
13821 14842 9268
11368 18250 11316
4757 15523 3425
19352 19497 12736
12265 13417 6183
16862 18875 4325
12302 12411 8744
18004 19116 1445
19391 19461 12859
6714 8163 8016
3269 7308 165
274 6056 10100
1690 3695 1889
6742 7785 4396
7234 7596 12782
6280 8228 6493
18856 19129 12833
3350 16179 9990
10015 11929 2826
11519 19025 2935
18528 19181 15041
8796 12738 2652
18261 19008 11919
17159 17513 11172
6155 11108 7874
3132 10144 10684
14719 15544 12862
15981 18733 9998
7772 18126 8702
18455 19398 7203
16972 18623 6534
8909 10981 8313
8861 18857 17237
1192 4156 18532
6338 10245 2751
12567 16870 10267
6133 18042 16795
19275 19332 11855
6502 18584 4909
15529 18475 9585
16545 18961 13115
16295 18599 3276
7317 17278 11322
1286 10776 12293
14999 18627 10140
5653 12686 2640
3579 12885 16880
13851 16380 2253
14454 15653 11683
3151 12654 4823
17941 19375 3574
760 7514 16861
3400 9035 2531
17591 17864 9586
10930 17143 11608
7098 14426 5645
17779 19172 2011
15315 16513 113
3378 18854 17577
9830 12813 10190
10508 18777 19190
5080 13351 3839
12786 14507 11094
12659 14787 757
9329 11500 7588
6346 16658 15933
5288 8385 515
16499 17206 12206
959 3309 1830
1637 9282 10812
17820 19439 15213
7202 13324 2242
2272 9285 7950
11878 18802 777
11424 14306 17339
14813 16456 11762
3045 17483 16851
5874 8495 12940
4801 6940 11059
10060 14390 16934
1110 11557 18308
2363 11259 4833
5886 6787 14815
17467 17818 15481
17217 18085 3612
9011 17560 7827
1943 2491 1497
2933 14120 13676
18548 18599 19220
10915 13701 13398
15617 16788 18107
16652 18185 14797
6652 13159 16655
18003 19093 5758
17215 17751 16427
15432 19199 19411
5870 7425 18211
9836 12969 15864
13589 16950 10123
1381 19205 8488
10668 19482 12178
3622 6807 5420
9448 13562 9773
19033 19205 3138
12535 13118 8043
12518 19237 18243
2130 16321 8448
17816 18058 7452
6678 7804 16874
8461 11799 12531
15356 19490 14761
14149 16836 3778
3847 12386 1303
183 15090 10861
8618 10917 18535
912 12637 3063
4992 13511 8770
841 4145 4883
14569 15394 943
3904 19076 2031
1507 10679 3278
11974 19024 11671
8377 19204 17024
5457 13990 16093
1382 18641 7989
16314 16740 14350
13052 14310 1586
188 5919 18259
3350 13060 3165
19279 19370 3735
4623 15599 13021
15913 16315 16817
7042 8367 16814
7014 11838 2313
5952 17646 14384
16568 17088 14494
12317 14046 17290
546 16707 5663
13960 14408 1828
18738 18899 3686
2358 19080 12449
16894 18746 14710
12039 18281 11015
13091 17163 17512
17753 19126 18995
14250 15119 13858
10704 17362 11973
14655 18246 18211
5036 13293 7488
6494 8305 4860
16861 18802 1939
7281 12249 18149
9040 9337 18980
3057 4432 5016
11639 18555 19243
7243 18388 18879
10509 16678 5268
6618 10510 13058
15246 15512 17960
16494 19242 2211
13432 16395 14801
6462 18583 12697
7418 11849 16266
14557 15180 15774
11315 14673 7797
14566 14689 14445
4277 12599 9438
7250 18744 2252
4142 11153 13681
8948 16586 8990
3058 12413 15058
12111 18624 10528
13758 16866 11282
17095 18090 18445
1600 18257 5828
5564 6267 8161
12700 15802 7818
16600 17036 926
12832 12924 1479
2582 14456 9559
18077 19463 11951
1404 12929 13236
14692 14953 17209
14966 17220 16767
19368 19381 14198
17762 19200 10852
18182 19115 11110
12396 18631 250
18922 19381 12582
8971 15635 18222
14959 15846 14031
11576 17704 2485
17995 18932 8828
14242 14615 14985
17131 17304 12082
18609 19327 10601
16265 19177 13851
16745 19218 6808
10132 12403 921
12593 13706 11030
15943 16801 6455
2958 13023 16252
10659 15756 5308
230 9604 5043
6657 12103 19439
11859 16238 13827
18770 18919 3247
19433 19465 11033
2949 15213 5016
17248 18332 6052
2995 4089 8043
1957 7311 14980
7036 9343 17268
9124 18334 6386
8585 11462 8950
14162 18124 11821
14241 17756 276
16410 17705 14967
9354 18258 9579
2832 12615 10167
4244 5023 8698
6138 17646 7509
8955 10369 3616
2979 12410 4044
15451 17867 3680
18696 18730 3580
11002 18772 326
2026 16653 10019
2875 17630 12405
7518 12119 9954
6387 6737 6255
10439 16835 15441
15956 18780 2480
13601 19428 16246
5624 13948 4467
4904 12376 5784
15581 15627 611
13981 17513 16721
12373 17271 16789
555 6029 11175
16709 17229 7760
11251 17933 15188
16640 17084 18624
1830 15290 11056
16012 17559 10840
18239 18986 5576
14339 19314 9771
16052 17933 19129
7499 7814 706
15188 18002 1128
11782 15206 15317
17773 18367 9977
8656 19041 1443
2241 15786 17616
2717 3106 10733
15541 15729 7111
14720 15960 2893
16800 17066 11881
14351 18921 9798
8506 14831 9768
18973 19162 11468
1250 15573 16397
10078 17336 17995
4657 12564 13669
2965 16389 12180
5523 11549 3120
5750 14853 13021
5054 18414 7289
15005 15671 6280
4710 7910 1853
10587 17066 8937
10181 12189 15393
15428 18744 17922
4393 5544 1965
4998 18388 6750
406 12917 456
5157 12671 19061
1899 13504 18835
17624 19078 17925
1896 14694 4460
2894 3571 6989
6460 7912 17787
5879 15255 4858
974 18624 18040
3077 12657 14408
3966 15342 12503
9998 11537 17236
12221 18742 16435
7870 16217 3222
8431 18426 15568
7346 7866 18158
195 13831 11762
5803 11985 8813
8930 17679 8778
3770 7850 12906
9202 14302 15720
13885 14477 5342
1349 18691 17003
11776 13735 6072
19428 19479 1813
2102 14756 2194
4983 17004 3508
7470 16838 15830
15797 16664 9087
18130 19101 5812
17613 19316 2517
10217 19431 1536
10097 18945 9429
1024 9517 16306
15635 15710 17281
276 16175 14546
2261 17128 8902
5133 18703 13065
12288 18648 13512
6670 16652 5843
9915 17022 9042
2196 11277 709
8650 8769 11573
14826 17397 16065
19301 19441 12319
6629 18283 11993
1661 17206 13490
5485 17682 11149
10454 13703 13552
10855 11447 1325
7930 18586 14280
14415 18611 13161
2518 15144 5380
3696 16449 15747
11620 17865 9184
18077 18314 12656
7682 17791 1767
17543 18594 18643
15546 19158 709
3155 10134 14139
3667 18946 1406
8182 14457 9421
653 15491 13955
7615 10069 14539
1049 17392 3755
6167 10993 14162
7086 17708 14013
1018 11172 16421
17621 19276 294
1677 12651 9395
8918 9424 11209
2278 17315 14923
8435 11199 1314
17081 18989 18834
16701 16985 15381
18641 18971 9846
2259 17091 10734
9557 13599 15816
15380 18546 10048
10889 11559 5106
8777 12769 13553
19095 19401 4279
3384 15799 5827
6223 16768 9995
9236 16242 5847
8091 15843 13994
714 19456 18150
9094 14512 16980
3124 18615 7073
504 19077 5602
13972 16278 18979
16053 18487 16929
13955 19256 10044
6079 13791 5419
1228 13988 14556
10606 15863 4817
10176 18873 618
4930 15891 3258
3394 4540 3862
1368 12784 1778
16504 19208 10620
7698 7794 7377
5501 18018 6824
1083 17126 3227
5198 6583 9925
9965 10969 8997
16634 18610 7
12866 16742 7207
14131 14889 3620
11297 12295 12644
2659 9131 13085
9714 17982 10571
15267 18886 9454
17775 19309 2748
15350 16391 17721
6132 13974 10771
12474 13351 3289
4003 11320 15316
6475 10353 3885
2531 14535 19494
6894 14986 9914
3433 17645 2196
10146 10735 1342
234 3769 15385
19439 19452 12361
12689 17009 3015
6265 14935 1649
8473 9003 16366
6682 8127 16144
13062 13196 3449
15410 18712 5982
3671 12648 18968
19373 19445 2970
7255 8874 15906
2368 16147 5391
8437 18505 12101
14047 18501 6647
13001 14980 5673
15226 16843 1768
10814 10868 12263
12481 17698 6470
2014 15564 14521
8138 18666 19470
1412 13753 13983
16062 17427 13926
16080 16962 18854
16051 16787 19473
6760 16696 3247
10416 11841 3724
16388 19159 15502
11959 18864 1427
2837 10333 3
15823 18524 3876
2310 11680 8126
11413 18062 19184
13848 18374 8656
14974 17193 2347
10833 10988 13636
17466 18334 17065
1477 2688 6604
1138 13014 14624
1093 3627 19457
12754 12986 18493
15075 18750 16196
426 8872 210
19382 19393 7136
16116 17633 15038
19305 19454 17878
7241 12320 3773
12089 14998 17017
13603 17532 6497
11115 14496 2367
3766 10732 14681
3190 17821 9174
13053 15957 4920
3227 3501 14296
194 7811 15729
4187 9577 5994
17189 18124 8181
15455 16018 4716
3287 12580 17510
3932 16461 7170
4817 6118 3839
17456 17733 15129
5397 8043 11296
15132 17714 16713
12845 14657 5711
6852 8427 1649
16860 17754 9189
15663 15985 12687
5678 11926 17171
5906 18956 10409
10716 19407 1366
10853 12421 9878
12999 14408 9848
17718 18638 11100
15157 16458 10511
3118 10789 693
1690 10806 10954
7660 10731 2628
8064 8607 6182
15080 18141 3383
16623 18796 18537
10807 15903 234
12327 14831 10480
5152 14602 10805
16128 16406 17776
6509 15519 7623
9675 18561 19252
4946 4999 2293
13494 19037 10794
6079 16552 17838
1989 4812 11388
1745 4633 18738
12466 13606 5900
508 13734 10179
7675 15824 6180
5831 9605 10751
4355 8341 11508
9222 15445 7170
17436 18585 17027
612 8094 6128
760 13894 3354
11540 15465 8431
3298 14388 6027
2215 12105 10820
12207 13596 3038
18163 18571 16300
1901 17237 8599
6689 10169 8580
6321 10350 6823
9042 10501 13017
1957 13688 1063
10204 13366 9017
16106 19464 544
12155 13910 983
7007 9874 10349
743 16844 6182
11605 12884 3234
12445 18518 11530
15988 18668 18435
3028 5640 14957
13972 15274 1731
11416 13194 12139
12186 18077 2750
16548 18558 11781
683 13014 3570
1883 14707 10750
4193 15288 7630
3817 15180 8976
15927 18907 10499
12331 15067 18743
8087 13596 2898
628 5004 16315
156 14167 15730
9897 12364 12109
1720 13315 9896
707 7706 5006
15874 18007 9806
14365 16417 14742
12933 13343 15652
1200 15422 18672
16881 17223 9035
11580 16857 14229
9064 16416 4
19449 19494 12020
10393 10985 18717
19157 19423 10849
318 914 2973
3490 10379 973
9215 9799 12542
3205 16741 1451
13538 14378 7507
11518 19129 4765
9611 14267 9051
14688 16825 13646
15706 16845 494
4200 5597 6312
7563 13511 10740
10905 14714 3344
9091 10393 6644
4630 19422 16398
7661 12487 2349
10868 12946 8782
5025 10823 16237
154 14030 5634
892 15954 11179
7433 13265 5344
7909 12235 7184
8197 11712 11737
7877 16399 251
1612 5940 13120
9912 17651 19435
16667 18215 14547
5301 18423 2967
7942 12469 1216
5670 18372 15995
6062 7019 9192
17344 18664 11186
5348 12291 1860
5710 17956 12080
7824 15161 9997
15701 16803 5932
17150 17369 10026
1011 5887 2754
14635 19400 10794
7973 13059 6192
14667 17091 307
7577 7852 10946
15578 17545 8349
8980 11546 1301
6164 19390 13779
12311 17401 10878
8060 17681 11513
16220 18829 13172
11449 11612 15305
1426 6622 499
14656 17666 6689
13204 19430 12111
2200 11648 5668
11824 14717 7728
6863 13998 10191
2430 15518 4908
1195 16843 15138
16746 17138 13550
3002 18588 15358
10496 17693 5491
7795 12340 1496
9815 12258 16429
15819 16092 5317
14488 15290 9331
17326 19211 9393
15317 15782 2158
2335 17935 11018
15523 15880 4560
12136 12186 16071
6113 16601 2022
13839 14699 2324
3465 10723 8406
9666 15930 1347
13379 18442 16225
741 1090 6200
4048 11459 18965
11706 16421 18606
2027 16071 766
16962 17227 12078
18697 19139 16953
17958 19320 5035
10609 19385 11826
17480 18357 4701
9871 11348 6658
16543 16663 13109
5341 16466 9123
13574 15428 9807
17737 18959 13456
11744 12140 19208
8044 16034 2134
14012 14732 7958
3620 12690 11760
201 2511 8165
16885 17373 12972
18403 18458 10365
19434 19488 101
1692 12043 15694
5212 10920 5491
1843 17152 7820
3775 9915 6464
15971 19370 16534
10952 13990 6094
3847 10283 18360
16503 18567 19122
18909 19072 7595
1491 9984 2835
8077 16767 5388
4742 15894 7441
2228 8318 807
4701 11081 11403
16566 18434 12898
12187 12222 15544
715 3805 910
10951 15425 18652
9049 18118 14780
4175 7101 12524
15947 16442 15071
9973 16441 11381
6111 16784 18107
16141 17640 11163
18708 19402 15876
12593 13063 6882
16676 18168 5341
10940 11348 14091
15986 18216 10929
4566 12908 3311
13739 18368 14015
16482 18748 17010
6879 9138 14581
12824 14140 3780
2066 15417 2318
9034 13841 944
15168 18947 17836
16257 18513 9560
8395 16016 16566
5662 7945 18322
2339 16820 2244
18242 19324 357
1555 1694 2969
14677 16342 11310
945 18965 1181
18840 19196 4557
1846 11778 16224
19127 19431 14682
17785 19171 4842
16042 17243 5671
11998 16515 14786
18340 18571 3008
14520 15895 3902
12658 14576 1252
12502 12723 1518
16864 19209 6344
7758 11141 7502
15790 16757 9592
13785 19173 13443
1250 9376 12816
8228 16050 16909
3840 11478 1885
9692 13571 5521
8668 13633 12073
1226 11481 17325
12168 17603 4994
3756 9235 2753
10292 13602 7582
16014 17262 4647
237 15410 15033
1684 7013 7605
15476 19012 4407
18542 18818 1433
3945 12578 6108
14100 14736 11393
19181 19311 10328
8203 15186 4380
11222 17304 18068
8991 14729 8446
4944 8355 18823
8647 12468 15377
3960 16650 17567
10454 15169 4302
18942 19149 15673
18035 18452 11543
11564 11634 6512
5904 10897 9256
16656 19470 17925
5610 11210 9489
6622 16733 3085
17724 19022 8308
3262 5085 10312
10731 12942 7396
12643 19029 11414
5591 16662 14114
16341 17181 486
8659 17528 12910
1628 15204 6800
7540 8391 4747
2584 14592 8988
15186 19187 2564
11497 17125 16368
2521 7308 18013
13253 14824 8171
7145 13732 16296
3129 4252 4873
6771 10319 18732
18666 19464 3168
4904 19118 1023
1643 18162 8004
17679 18126 7070
17828 17851 15674
10915 19217 14970
7266 14566 13739
3025 5041 16079
931 12633 19365
10229 17280 17164
9602 14412 1470
2458 13294 132
11657 14324 3600
15741 19060 10486
10349 16365 53
13961 17790 19483
9841 17965 9969
3454 17265 10329
4378 18371 1536
757 4275 7775
13525 16257 17915
10336 11943 3056
3592 7419 16761
9964 12819 6641
7983 12362 11122
7021 13317 1948
15748 19185 2271
18540 18550 3914
18349 18939 615
4553 11654 12942
12633 16034 10597
15252 19065 16269
5905 18729 7048
461 18690 12374
305 7228 6801
16291 18065 58
4190 6543 16548
9883 17988 16162
1394 12481 5807
6111 16368 8880
7750 16286 14154
10328 17355 5166
15267 16012 112
1315 16151 7274
15923 17478 18975
5925 15764 2405
18323 18677 18733
14623 16235 11733
2155 12054 15364
4259 10839 6794
4842 6994 14939
11206 15680 5175
2858 3284 787
14474 16177 15408
9615 17853 6090
10257 16511 15713
6933 17310 8252
16917 17685 1819
12345 18385 6057
3135 11712 5129
1969 6770 10115
7544 17284 16045
6879 18839 14652
10594 15722 14446
15878 19375 10907
9092 19374 3434
16827 18868 1785
12987 13733 7694
6433 12472 17916
5733 6769 2548
17622 18047 244
6283 7963 14267
6691 15664 7933
16544 17234 3965
15664 18720 18902
8593 11263 4038
9932 11655 19082
15645 17987 6209
3308 15520 2349
17010 17959 14821
16020 18962 2691
12504 16891 3270
4330 4479 11851
6693 9070 3902
15442 16894 12079
4955 10244 17976
5277 13272 6197
17186 18326 8491
17199 17764 14613
4926 15002 10532
14539 14847 8416
3703 18441 6440
17996 18355 14638
18180 18898 15631
18458 19063 5725
9281 13723 1468
7840 12044 19344
4038 11608 8795
6653 14502 12906
76 11899 5091
7345 10939 17497
19358 19485 13489
13990 19211 17127
12060 12138 11264
621 4436 13660
1663 6986 12469
2966 18933 1073
7549 8771 16876
13098 16266 3477
17126 17498 19192
17961 18318 15685
13468 16984 12115
10106 12646 11781
5595 6466 7604
11003 11713 14826
12573 18950 10749
17799 18881 19221
19012 19167 15764
2061 9025 6015
15282 17644 17907
10353 11061 6067
16739 17452 9847
6661 18605 1814
8698 15647 8647
10957 13221 5782
1142 4674 17430
14375 17171 6577
6656 11727 16277
1755 6281 2891
19052 19152 18601
11055 19218 14403
3509 9156 1275
9275 18686 13658
15448 18956 7618
2439 4743 1150
5877 18481 4987
17524 18662 10445
2694 17691 2221
3347 6676 13603
11680 15943 1876
9729 11869 9910
17848 19162 15249
4755 15337 19251
8908 11868 10671
2533 4630 19461
16307 19091 205
7426 15060 406
3536 10529 6168
14013 15865 16897
18226 18469 7872
11921 17663 19034
8076 10833 2862
7848 10194 12170
119 8441 15000
16026 18527 11478
3034 13427 6892
15017 19267 19430
1111 9887 2740
17319 17446 6033
3512 11355 15614
15807 17526 16256
2682 9168 13269
2171 14814 14252
13404 16405 5919
13318 14262 4052
12545 16650 1806
14035 18706 14521
12464 16602 17281
10621 13897 15144
3349 17069 14447
15855 17001 15774
9169 16015 16141
8707 17967 11089
17164 17723 8559
8203 16540 14235
1612 17567 1414
5814 18963 16714
8015 17939 12306
14005 16036 18413
1918 16696 4278
12092 18576 10857
10614 13613 13544
7874 11457 3965
187 14002 12559
17365 18600 16541
4061 9983 10234
1171 14932 5692
18987 19104 16531
4446 8180 4392
17196 19229 16767
13920 16283 18873
7425 8673 18837
10333 16825 796
19321 19389 16273
16041 17610 1217
9157 12894 10755
5050 17281 18390
7417 12273 4443
17185 17187 4001
553 13648 10270
11109 16530 7635
2238 8420 10177
14297 15847 9463
19014 19371 17399
13727 16725 3116
14856 17283 16482
9004 13839 5135
5821 11076 13034
13282 19070 512
12732 13794 15056
17890 18713 2092
12433 18970 17146
11226 13751 3449
15653 18897 288
13715 16058 17548
8793 9453 10787
8397 17741 9301
595 1498 9038
5282 12677 10471
6981 15173 4685
12306 14037 668
17852 18474 3804
6779 16603 5090
15011 18823 18787
10534 11711 4086
13659 16068 14641
9451 13408 7202
10860 15106 11887
6220 14164 263
1607 10153 19245
9678 13513 14868
9884 15053 16133
8122 10914 3808
2189 19081 3330
1844 8766 3043
1944 16713 282
17593 19493 13099
4186 6813 17361
6872 15915 7818
5992 12789 17298
15508 15933 1965
14284 14414 10572
1440 8416 9981
17261 17702 16006
4847 19165 6072
12359 15503 8020
6944 16385 16070
18011 18599 16932
6335 17093 15275
1825 17213 8752
13492 14073 19038
5660 18437 14778
15411 15433 18423
12746 15155 1036
13429 15760 16021
19102 19213 4025
9525 12013 9570
4796 5739 11040
928 2816 9536
17795 18357 15683
9267 10133 19036
16223 18994 7372
278 15661 1745
8880 18019 16018
3845 8811 4877
860 9425 12289
19036 19233 2329
2215 7556 7979
13589 14596 4400
17652 19285 11995
7767 13877 8928
10227 11014 3653
5030 16379 9655
18666 19339 1207
7103 13805 18294
14864 15152 6804
10509 12801 518
17099 18807 7221
15671 18779 6098
9750 16951 14885
18940 18954 6959
15280 17174 16469
5961 9417 9958
14980 19264 13736
3589 10032 9802
19295 19470 13782
12505 13022 9926
15145 15791 10598
11778 14376 18197
7771 14584 818
8709 15411 16027
5211 14126 8498
4725 8656 12499
17410 18011 11223
2456 16158 10679
1249 3705 14687
2765 4996 12801
13593 17650 10128
14059 19133 18207
9014 10558 16127
10390 11946 11172
7409 13165 15685
6602 8862 16980
7497 12271 1463
10395 12380 5503
8461 10267 5714
4355 16708 18985
10235 16552 2696
7335 19168 14177
2823 18970 15046
16685 16738 4452
6721 7403 6640
14578 16310 13639
2146 2732 5229
8008 8510 14234
13077 19142 3103
5342 12440 19094
5031 18299 4227
16988 17022 13176
3638 17218 6683
10921 16774 18684
13230 15817 14555
1532 12186 16349
5161 15537 2041
8701 9201 7371
11523 12910 6495
10456 15678 5681
14146 17367 136
19464 19466 10384
6770 18378 12633
7345 14507 15204
7039 18310 15200
19454 19464 18817
7479 9135 12222
3334 8297 18468
19321 19344 17992
1664 13543 4548
988 18159 6553
7401 12933 7036
14978 18861 8256
15352 19396 5090
288 13073 9458
1435 13228 14713
17164 17300 1835
155 17482 405
4254 7710 14569
11966 18530 15659
4984 8632 3312
10386 13122 10339
3914 18738 2162
6483 11016 3868
11315 12248 280
2737 7929 6112
9783 16004 18064
14745 16393 154
4585 7485 4700
6014 17946 10256
5456 9578 5807
3578 8805 9175
16711 17040 16466
6706 8084 8349
8630 11399 1432
8473 9394 2403
12184 17833 11041
5040 10688 19256
9504 15104 8150
2271 12722 17718
13842 15575 18421
3505 19036 15772
16042 18940 7942
13086 14029 9237
12875 16909 16684
2673 11725 9705
6357 17117 9206
6894 17964 9697
16176 17371 8035
2300 7270 19091
8590 17544 16085
5620 11350 3928
6742 17492 8818
16307 16448 15247
14107 17434 3258
13785 19272 14050
10207 10844 2835
11629 13151 1155
2891 16795 18880
12101 16702 3172
4341 7334 9393
6179 17123 1148
15593 16431 18399
13815 15963 15514
2860 15535 4645
19435 19467 15775
10164 10574 17010
1056 10803 12454
18261 19481 18493
19253 19262 7069
35 5748 9339
7586 12032 18876
9269 14279 18916
11481 16261 2885
2516 10725 8254
15479 16898 16674
2039 2378 15997
619 15450 4693
15335 17226 9077
18171 19118 16146
16548 18533 9868
4366 11210 9402
174 18994 17427
15356 18134 7394
7077 17133 17156
8849 17171 17234
13778 17698 14830
12145 13965 8851
12945 13428 19129
17013 17989 18508
4114 5621 4845
8201 9733 18795
13747 18705 4576
2249 5218 11690
11707 16350 15892
16455 17235 4927
6808 13058 8591
8232 14501 2749
14228 16877 8077
15160 18436 8721
11143 12861 4677
13039 13905 704
413 16133 18606
2660 16554 4183
4863 10540 8534
4603 17380 13871
19167 19417 7423
24 6299 15802
7374 13432 15156
6375 16534 4306
6986 16755 9964
7690 16449 13312
9665 15080 18193
7029 9763 3549
13756 14629 810
15449 16978 253
17997 18699 16743
2264 12135 1151
13470 14446 5490
4746 19482 10770
19426 19447 16527
5547 6999 6383
17912 18242 17533
4450 16741 109
10186 12484 12960
8708 10383 3488
12617 18905 8414
429 18969 9383
8837 14458 10726
18045 18549 19030
19361 19459 3875
7020 15951 2937
6391 17214 3083
9791 11447 14572
5672 15983 18458
19140 19412 8897
16455 18340 12381
8814 19453 11773
6421 8227 13031
18167 18744 3169
3136 18001 11558
14848 18618 19397
10438 13580 4960
5740 7879 10716
11442 19462 7861
9047 17427 1082
2919 19438 15713
10952 14961 1071
12610 16302 11433
7830 8365 4886
10933 11236 12933
16825 18654 8726
7063 14558 6003
1705 15377 9742
13254 13367 12048
11757 15960 2426
3229 9733 16498
18921 18974 6849
9643 18381 4642
16429 19116 16164
4169 5766 2765
18663 19061 19283
5220 6664 13991
5047 15211 6142
302 13903 9133
13807 14841 7564
9947 10830 2440
16793 18346 7806
16704 17221 15481
13513 17622 19453
3913 8518 17214
3114 6670 9016
3477 10821 7865
19352 19358 6560
13264 16917 15119
18696 19413 11092
652 10363 4501
16673 18322 8838
3377 9425 16171
2759 12124 15381
11816 14349 11765
17143 18415 11826
13630 16241 16213
6546 10462 13492
6783 11636 6138
18601 19416 12015
7847 9086 3915
17693 18545 2043
11108 16323 9547
182 17394 5806
9752 18471 2448
3677 9571 3949
1172 2655 12740
9957 11536 13384
2105 17173 5110
16549 16809 7971
3830 11272 11991
16746 17323 19078
15052 15331 10019
12151 13359 5557
2754 17312 4467
15259 18966 6831
10678 19176 2253
18371 19136 11106
13188 17103 1396
2838 6501 13720
13999 16528 14249
10743 11129 6577
2284 15813 4458
5484 18702 8264
3471 4445 4351
5457 9121 9703
13285 19201 11568
16943 17511 10414
5118 19109 12208
5683 6827 17167
7081 18163 16271
2625 12144 3626
5439 15572 9991
12409 15709 10519
7567 11811 11715
12361 14945 18378
2371 19191 16132
11288 16089 2805
2999 13225 9710
7719 16099 12378
17234 19270 1099
18489 18750 17517
17797 17943 8270
3502 18607 11040
9382 18710 4937
9871 11115 13976
1824 8464 2114
9105 15343 929
12534 17136 15832
2866 9735 4546
2257 11285 15364
17567 19069 3790
6133 17874 5227
18193 18400 6960
1768 16403 13137
5318 12852 18434
6263 8928 13670
5810 13412 5347
16592 17905 63
17524 17681 14478
2624 8068 18512
8817 16020 7579
12663 16020 6795
15984 19228 16330
12856 15650 17649
13178 15752 2981
18011 18117 8598
4929 13781 12806
13659 18171 1239
10455 10987 12814
11782 17090 14290
3565 15292 7247
4312 6473 585
14003 16163 2925
18291 18434 4772
7822 19141 1574
6652 9443 18857
12846 13182 1924
12080 17174 10067
11451 13471 2009
19219 19480 296
13774 17658 4243
13438 14507 15745
4408 4911 7168
17895 18511 1679
4143 8244 11273
17888 18675 287
9676 11876 2864
3715 5526 12008
13758 13908 5787
16368 17645 646
11086 12192 19002
2674 5363 6521
8664 19107 73
19054 19157 14626
15853 18829 17067
10103 11701 5101
12709 17888 140
15553 15567 7446
11779 18191 6078
5238 16249 1016
6738 11300 304
9686 13905 3012
7572 10401 19078
9706 19041 15133
2148 10298 12202
12231 15448 13514
13728 17328 14180
12521 17533 8177
170 9959 9186
15232 15316 7461
460 18000 9438
9209 10196 9687
11597 16475 10123
11495 18092 5100
1864 8266 6126
1740 6175 11953
8040 10982 14700
8486 18303 2736
4983 12554 17761
154 5194 4678
19412 19486 14635
11114 15900 18429
11083 14044 8797
17182 17803 18148
7656 9285 9923
464 13898 2038
5164 13833 17607
13264 17295 12453
9500 15989 16627
4446 11694 10740
10599 13973 9101
10299 15215 18387
18958 19482 10183
9667 13759 1843
10611 12558 13281
13481 14258 4646
1694 17506 973
1831 16553 11765
11408 17681 8527
2843 3358 14501
5531 12008 17465
15502 16674 12498
2955 6643 15945
19018 19324 15567
14979 15754 6660
2618 19080 18054
132 15019 3621
826 2260 7703
9825 17613 1192
16809 16921 6455
5638 14359 17284
9040 10301 15447
5253 9553 1177
6069 13459 13110
3888 5098 16364
30 1953 2364
19119 19475 17051
4035 13035 16637
15088 19175 1157
5154 9354 16052
17831 18479 13196
11785 17400 960
10855 12088 15795
9063 17671 17327
17634 18194 9602
3656 7670 7402
8073 8627 8453
8526 9883 8719
3019 4191 9204
7866 12556 895
9277 13851 6219
17577 19033 11761
3346 7908 9707
19277 19476 8
5204 11946 4679
8811 9805 7176
8825 9215 11371
1769 8668 18788
4999 18847 8864
2188 9597 2107
9640 12315 15920
7227 12226 5736
7871 17580 18475
4441 10906 8534
3740 16987 1180
5580 6732 15079
2919 17748 16268
8828 9920 15995
16954 18236 18063
1626 14951 10558
10541 17780 12827
3927 10693 6276
19063 19451 10446
12303 12523 5177
546 2341 2898
19072 19294 13042
485 15957 4451
5880 9718 6137
10426 12358 8133
1834 7879 363
1642 2674 8572
19180 19243 57
15916 18632 18871
8221 8250 8572
3445 7515 3353
463 6286 11306
3992 9504 11531
14769 14865 1985
16907 18176 6111
13834 15671 15710
10091 14358 6943
19237 19459 4220
8785 16491 17368
15406 18779 11610
7484 18898 14061
16378 18094 14759
18510 19226 16171
13479 17772 10501
14690 16838 5336
9341 11746 13301
7870 9516 18181
11402 13488 6395
10654 16365 19500
3335 13077 4853
3634 8444 16621
8969 16117 14431
16746 18153 18891
9752 9924 536
13836 16124 13709
16477 17210 848
17637 17995 16412
18054 19305 11636
13577 15046 15290
9866 17811 15922
11285 14550 11221
6950 19129 15805
5482 7748 5542
5046 13984 11059
146 8123 9820
16981 19412 10804
1953 9281 2623
18641 19327 11390
8229 13908 4348
378 17387 7594
4141 13048 16574
17718 18767 5882
1879 10189 15941
6356 14645 11244
16170 18743 13416
588 3199 15635
155 4339 15958
14113 19230 18316
3624 18972 19486
5312 5794 14189
8663 10288 14884
6869 18888 16265
4215 14115 16323
5033 18754 17540
10053 13061 15918
9670 10339 15229
10800 13361 12577
9341 12011 15704
8360 16889 729
5775 19044 9340
15465 18724 14816
17743 19307 7080
2799 8072 14686
17776 18293 14543
9664 14354 2859
18817 19088 16965
11864 18406 18425
18886 18896 13418
11266 13490 19038
17769 18659 16954
7548 11125 5048
5871 9082 18733
9312 17939 7284
19175 19474 17558
4841 16885 15083
17631 17944 2007
10132 14661 6532
12447 15321 1557
8050 16816 11527
6230 19265 2352
11671 14788 10323
5967 12061 19429
6997 11531 2397
6384 11431 17408
555 5227 6430
17095 17444 17136
15711 15816 19222
17099 17523 17363
1245 11538 18320
3313 10805 5566
18518 19037 5817
4577 10595 11951
12894 13974 9508
18852 19217 11493
3547 4766 9352
3163 13276 2890
16192 18871 6037
4914 5051 713
12082 12861 18566
4929 9891 536
18250 19093 3628
14109 16084 7434
7386 11284 3410
12620 16707 12403
2503 6490 13722
10466 17437 10973
8614 15294 11873
1623 17539 9800
6218 7547 16694
8600 13394 6220
11630 17259 2388
7611 18060 3751
18602 18896 16443
12780 14576 1902
2128 3886 8208
10047 11110 17053
15011 18060 2002
7811 18269 3858
2841 4884 1484
4093 18484 11540
3234 18843 12126
18218 19251 15862
12661 14826 13136
4000 4355 307
14251 19232 2637
4950 15169 7570
6485 13180 5989
8153 9090 14829
2435 17944 18121
18666 19002 9982
12389 16136 15760
13472 17779 11641
11674 18583 16676
11039 12414 15294
3941 14041 4885
719 13119 7874
1677 11276 18430
7352 9430 3618
8788 16139 15424
4033 18692 9445
17495 18135 13924
13972 17862 11801
10123 16867 17924
8596 14724 16718
9373 9454 11524
5709 13937 7903
7911 10568 2418
8415 11067 18770
8193 9231 17136
13287 13328 12675
6937 17944 12654
17696 18307 7031
1308 5733 8558
11745 12764 634
12330 18090 845
9909 14705 7731
9958 15438 14273
15314 17361 18606
16290 17990 10447
18491 18637 1151
3670 18868 5606
11225 15241 1260
10984 18425 17314
8257 17324 4819
6165 11204 6447
15078 17635 17389
16321 17734 6197
10719 10988 5940
17825 18202 4023
10007 18898 18761
15094 16174 16450
17575 18904 7978
11430 14628 1440
1636 3048 114
1493 10119 2467
1193 8574 629
16107 18392 16332
13474 15404 17997
13750 14361 1657
8410 12876 3203
2821 15827 12609
445 10092 1760
4902 16700 1764
10244 13176 7413
5285 18225 16121
6355 12594 13540
1047 6755 12490
216 6892 5722
10691 11816 16097
7208 10464 16550
1884 9827 4813
14904 19337 19232
6257 6721 122
8464 8667 9689
12623 17673 9522
13825 19245 8523
4930 12461 14539
16976 17880 14516
14591 17063 9914
10461 12779 13050
816 11553 2252
18342 18542 12753
11072 14895 18295
19261 19295 4802
17338 17550 1850
556 10103 17644
16454 16923 8071
19122 19244 4640
1150 15774 2473
12140 16062 17810
10349 17292 332
15132 17678 17493
13456 17277 14282
4187 16971 6884
3274 14598 453
5750 9203 13594
8162 11960 6679
3429 9112 6978
3563 16050 11405
11992 15502 504
8559 12336 12522
15181 17926 11367
9799 11169 6556
14399 19097 5914
4657 9976 18342
7703 16477 8821
312 6300 5295
19222 19453 6761
19481 19495 16655
15951 18295 7278
11352 18329 8785
6592 11390 13955
16500 17825 18845
14096 17260 7609
16516 16575 15608
11433 16551 15140
18847 19131 162
8494 12401 1060
889 5011 6331
1526 16031 10574
1333 15983 8175
2357 11363 15419
12749 12940 6300
9272 13512 16574
14241 15611 11378
152 15034 3918
680 12789 13201
6876 11046 11307
12351 16489 5398
5233 7559 10938
6073 15072 4564
16402 17051 16877
502 10877 14184
16149 17228 7996
7180 16256 17286
1714 14781 2776
2509 3847 1355
8081 18233 2214
18650 19118 13547
1975 5928 16402
17751 19285 4614
15714 17306 1518
14305 14810 964
8668 18207 11174
14387 16009 4182
4682 16428 9726
11049 18239 18132
16300 18602 7557
10241 10671 7316
2649 8033 17215
17030 18796 13367
9712 14105 19317
19011 19380 19433
14802 15369 9507
14145 18150 3032
9069 16429 17135
18881 18936 15602
11180 15346 18262
14344 17850 1341
5749 6914 15333
17709 19207 1009
5622 8215 132
4840 15747 18869
12435 15760 13990
3597 15960 17885
5628 15561 17294
259 4181 19410
8182 16710 11463
13708 13995 14335
6191 10499 4911
1318 16732 7373
13764 16469 18099
14999 15236 4884
11776 18104 11743
37 1396 6897
10191 10722 2088
15597 16799 7654
6094 11144 12670
884 1297 14662
9415 18078 3009
14781 19094 5459
1057 18660 6962
3782 15825 16024
10892 13825 9746
7166 19393 5292
7577 14527 16951
10918 17668 12663
6958 18730 19187
13049 18843 5211
12929 14919 5248
17826 18316 10902
9710 13940 14949
12507 17886 7262
578 4438 1873
13261 16479 5380
15187 17571 1316
10063 11358 19160
14370 18874 5510
17589 17668 6921
4707 9467 10009
16967 19217 2420
6328 9695 15944
3408 7025 13713
3633 16200 7712
7462 9037 8566
4804 8191 15812
7048 9091 18996
19045 19154 16484
18536 18892 10756
17887 18265 4899
3984 4012 7631
1346 16308 3671
13140 17842 10719
3000 6947 11750
18032 18992 13205
1194 3232 5180
8133 16050 1734
1025 6809 16506
3344 19259 12940
17906 17996 12430
18228 18248 4763
3287 11272 2382
16153 16481 7964
14359 15396 1252
18502 19075 17580
1741 8126 6680
800 5866 2049
5740 18113 13920
16207 18395 7370
5750 15753 3967
947 12107 5862
341 10659 2316
19004 19497 16688
14443 14944 3222
714 16098 18086
1092 7257 13154
18313 18673 4353
5997 13229 4213
15277 18296 8824
12372 17082 8601
7801 15017 8167
4156 13666 7167
7133 14981 6372
5734 18734 18893
11986 14008 14581
6390 16097 12458
14834 18124 6381
8138 19000 11734
7776 12301 6814
10105 16718 5898
1142 9349 18230
4875 13073 9236
14149 15192 2675
13153 13470 17325
1086 15609 8532
5465 6806 1684
3789 6865 9539
6414 8336 2192
14456 16674 10702
13353 15007 10144
16786 16918 8178
10454 16662 6833
5932 9709 16749
1586 4249 10349
8813 9805 2809
13496 14028 16627
12173 19490 10434
10934 14819 10500
17362 17897 12980
7251 9149 17201
3382 18138 5532
3426 10782 5571
7192 10362 11017
15874 17619 9374
5921 16081 19198
5274 18257 3096
12770 18832 5363
10579 10994 4128
11889 15639 16042
14926 18138 17505
6121 13444 1469
5832 16415 15354
9360 15069 16378
1743 7371 8733
12506 14809 13463
11327 16436 2747
11368 16565 2796
15296 18674 325
9000 10173 17614
5889 16028 4721
8266 11656 15775
9019 9591 4693
6889 10042 17539
18978 19411 4306
1110 18511 14417
16896 17808 12835
5736 12390 3500
13436 13972 16448
8917 18988 5008
13469 14204 5069
2596 11788 238
18597 19493 10985
8439 19347 402
6515 10719 11115
2759 18931 6160
476 3881 17207
13895 17026 18543
9148 18370 15286
16602 18192 1280
1180 2097 14049
17851 18708 3011
18152 18687 9883
4063 12751 11541
17848 18431 19082
15867 17965 7872
16676 17470 14564
2196 7000 14990
17623 18197 18265
5191 14650 4151
18344 18564 16327
7626 11939 10458
3493 11137 2100
11130 12918 6025
3260 15786 15352
14511 18442 3042
2341 13477 2467
5492 11937 10551
9551 11761 6568
11355 12227 167
3608 18012 3897
16921 17730 8282
13624 14212 17834
13407 17379 7576
17085 18577 5675
10723 18793 9254
8000 8316 3269
8701 18053 17403
3703 5541 17761
15313 16543 16286
3909 6738 603
15879 17147 12468
1212 4216 6037
2899 9234 462
6388 19041 5515
9954 13113 9808
15021 19392 12051
11147 13026 14887
7365 8745 11121
10295 16521 15585
9641 16055 349
5649 18379 18902
2390 10537 8420
18778 18895 14183
17249 19414 8316
14419 15042 7134
7158 13994 12247
3496 7920 14261
16832 18052 3987
10740 16633 16000
9156 14473 10486
15156 18818 14964
7784 9372 9137
10058 18426 15131
2568 5799 7831
19389 19492 18859
19118 19486 12456
18673 18903 5412
12138 19219 5153
13481 18117 3221
19 10416 18518
14788 14870 3182
424 16963 10431
2134 17204 17971
3600 18999 3501
14147 17005 13902
5723 13820 3725
8823 9734 6296
93 3344 13976
4027 9406 578
17849 18150 7965
17317 17975 15896
14241 16760 13274
13455 17898 15050
12794 15377 3333
681 4938 9580
16910 18249 5965
11384 13621 16469
6830 18539 16870
6761 9901 10468
5964 15146 16752
16233 17395 11505
4256 4854 13998
13305 16922 1944
5635 16873 7442
4974 16921 5099
15286 19437 7319
7010 14953 983
953 10616 5604
7425 10046 13904
2071 15982 8184
4924 17341 17884
17385 18004 1137
4060 17245 15435
9471 16964 14568
19213 19499 10355
7812 12868 9817
11976 18647 6320
8512 16129 8837
9560 10176 554
5107 9705 12106
6420 8184 7017
14065 17165 11708
8010 8550 2590
5590 16213 3564
19007 19212 8300
16461 17593 3669
16302 18484 12168
6725 8966 18795
8753 9156 19223
15405 18903 16860
15046 15058 5563
2775 6571 17130
1461 2919 17010
18732 19373 9580
4159 7186 10078
16720 19247 555
10350 13184 6985
12796 18538 5314
3172 8882 16844
2405 15164 16687
4298 6768 3918
213 16652 5942
1284 7477 9230
11584 14954 11055
5106 15880 19495
176 7940 2937
10802 15634 976
1852 16219 10185
14739 16968 3908
4586 13127 16664
4184 6097 2698
18945 19358 2768
6148 9413 8401
13717 15459 6675
12133 14047 9919
15641 15935 3072
5976 13404 231
2405 11580 12103
554 17362 15083
2725 5303 15101
19114 19176 395
11562 18765 14756
7653 12297 8291
8172 12979 15439
15645 17490 10566
828 12138 2314
5103 8183 16931
14251 16157 2439
1515 11633 14207
15871 18359 15976
17778 19498 14733
8880 13995 2410
5972 6357 12763
5497 14083 1423
3757 10609 13569
10382 14050 4972
13715 16523 5838
4928 8054 15520
13350 14759 14644
13234 17478 12059
773 10027 19418
2759 12726 12860
10743 15450 25
1617 18348 7136
10449 19059 4927
15951 16305 5439
1274 19436 3060
4980 6076 11698
8779 16567 4394
6664 19315 15890
14416 16024 16901
21 5474 2166
6113 10085 14673
13736 14689 17699
11380 13620 4044
10901 19020 16106
7613 18223 2806
11673 14052 8152
4608 18857 16233
3175 7828 15800
6628 14858 10487
4594 8420 9794
7219 12664 10437
19222 19233 9302
16032 16766 3198
9156 19355 11055
10994 16124 12614
1485 8294 687
13407 19018 10098
1396 6301 18637
10693 17504 4646
9109 9128 110
13877 18722 5801
19041 19058 2001
14131 19094 6795
14810 19453 11446
19045 19319 3912
16747 19094 4192
1273 8367 3458
215 3538 16847
2456 5601 11770
13571 17665 9693
17323 17832 9509
16381 17721 15258
3248 10075 10992
19461 19494 7586
1917 5261 11560
8044 10963 17429
17250 19103 1170
18517 19201 2685
18436 19477 17525
12887 15462 5647
12690 13331 5016
12545 15938 7857
8869 12404 9142
7077 8930 6437
18545 19116 19292
3179 6588 11050
12889 17248 11574
4850 10164 7178
9675 16889 14029
7246 16840 19142
14293 14305 16822
8767 16661 14742
12333 16396 7567
18549 18957 19245
15226 16940 11066
3418 9235 3278
7480 14424 3855
4425 18300 17971
16493 17300 4723
18834 19036 13251
15678 18792 16082
17146 18280 4316
12641 15006 14010
10599 12538 3069
12539 13692 3268
11235 11894 5838
14016 15896 2230
1405 4471 13615
9556 17887 4298
16854 18287 14897
1197 6288 388
11470 15122 8271
5934 13167 13175
14369 18005 6709
4820 9333 12687
17321 19490 8523
15032 16976 8226
17085 18331 11395
17965 18242 17646
11297 11555 4965
19311 19378 4850
5598 5607 17172
985 8326 16042
2433 2601 15695
1399 9779 10421
2393 15122 19250
2899 5778 2673
16687 18321 639
12632 19093 14544
8553 12202 5454
10183 19187 8184
18945 19470 19420
17760 19377 10716
5290 14500 9369
7224 7494 8651
16362 16566 7651
10379 15161 827
10166 11498 2385
15983 17925 1498
8022 16226 15025
2950 10130 17610
13808 18973 12884
3891 16971 7393
10214 10896 4419
8009 10030 343
11685 17421 7089
6805 13205 9048
8440 14538 18220
7766 10412 2672
11814 12938 1916
12933 13785 15663
10420 13557 13383
5151 9025 4647
1672 6696 6125
3449 17082 16870
13612 17594 8058
18231 18799 4088
18174 18252 5183
17938 17978 9254
9487 10076 7314
9579 10883 17923
6243 6993 473
16713 19349 9789
11577 16336 9751
10749 19450 5936
1539 16266 1150
5090 5835 13180
17878 18406 17513
13373 14350 11160
6962 11994 17084
16155 17352 6911
18989 19086 83
16946 19367 9195
13981 15665 15890
16230 18537 5487
4852 10742 8976
14068 17639 14085
6616 17957 1072
17425 19411 4230
6065 18239 12086
13822 15819 9470
9801 12117 4796
18982 19124 17975
19402 19450 16811
5903 9574 15410
15505 15942 15688
11632 12055 14621
19277 19345 4328
10315 15518 5971
7058 17047 16987
4754 17471 15037
17975 18367 15037
9443 17783 9344
1965 8199 5773
6973 13938 6015
8116 8195 16749
10015 15077 15191
1313 15629 2470
9898 19051 5319
19274 19301 4209
4380 7210 18049
16528 19353 18562
7519 10130 1230
15414 18787 6446
11867 12093 6162
9907 12708 16042
1475 6543 15584
6297 10552 7931
4280 12912 1992
8095 10150 10246
15613 17997 7070
12776 18695 2446
5060 18178 6024
15751 18184 12764
10438 15332 11525
7005 8020 17211
13464 13866 4418
10796 11505 8393
10141 11879 4477
7027 18141 10074
660 17179 11011
16344 19000 8665
18644 19405 1833
5644 15764 9614
18455 18707 5227
14698 17508 17679
2877 19291 4361
541 9186 3232
16868 18705 5902
12501 15910 851
11361 15189 15716
16584 18803 8013
13492 19229 11459
12799 17104 8537
12055 19259 11210
5783 7774 6910
3346 11073 780
1312 14511 10462
1206 18542 6248
906 11298 10288
10275 11938 17067
15848 16354 17656
9239 9862 18797
5159 17078 10613
18758 19406 175
2115 6705 13704
18407 18994 2284
4760 16212 18139
5181 19059 8204
9616 17958 15681
16232 18727 16501
10491 12409 15972
2779 6581 10904
7495 11592 12317
1824 17856 18221
11673 15416 18023
508 15428 17343
5144 18839 11956
12511 14247 15224
11434 12616 11320
16204 18582 15207
1961 13928 111
11524 12070 16934
17294 18885 4472
11160 13691 14728
17476 18874 6642
15129 16798 14137
18882 19421 16228
13068 19455 7374
3521 11426 7391
11020 11152 6415
655 19330 1442
16815 19457 11128
677 11303 8773
4519 7250 15516
13580 14859 3734
18626 18846 17123
12192 17426 17057
12670 15199 17501
8936 18108 13261
5530 9745 6374
10625 18941 5774
10239 12186 1223
12980 15765 14116
12537 15422 10255
1509 14589 14916
16189 18993 301
6964 13222 8661
9836 14676 9462
16371 17862 6699
4782 5207 6023
5624 13274 8585
16873 17122 17974
8156 18081 7159
14797 14860 15283
12509 15984 9675
7482 12830 9894
14969 15531 6821
9888 15778 13373
10968 14645 5455
15839 15967 12038
2642 11940 12768
17588 18025 241
11705 12145 1900
3325 7133 6567
633 934 8086
12791 16105 4432
16872 17416 2109
8457 11698 12728
12500 14698 7660
4670 9709 10185
11621 16236 18404
8659 13124 8782
11473 16167 18265
8906 18103 11069
11266 14992 4218
18620 19172 16466
11707 19072 15878
13177 18720 16332
407 11315 10317
17029 19215 1493
1609 4143 4873
14350 16587 1931
8799 15027 6949
8828 11114 11565
5507 17189 7917
7514 12589 4287
1646 9221 10823
3719 6856 8079
19425 19499 11694
11419 17866 6291
10200 12644 10297
3248 14136 11829
13587 16589 11370
4723 11421 18032
4732 17882 17222
14303 18376 3118
12453 13869 15549
14889 15487 4754
18255 19480 6196
5116 17972 9428
10091 12032 14775
13085 17860 17603
2438 3119 8706
2085 19271 13686
5093 7149 5581
13589 17291 10299
16814 17446 13032
16038 18070 11096
9198 11050 7436
1932 6029 16223
5509 6362 15903
19381 19428 545
10753 14910 8175
7361 14878 6071
17847 18069 15721
18813 18846 15076
484 1367 13904
18910 19279 15092
2930 11346 19405
12533 16505 10832
17539 17987 5527
9907 19451 16627
12200 16009 18901
1476 16645 7281
17141 18991 1144
17680 18846 4287
671 7171 13310
13843 17779 14351
8395 14111 19107
4445 6706 12330
1689 8256 13578
11620 14311 14055
1876 7359 6206
14811 15730 7808
6339 7087 13412
17042 18523 13294
11451 17347 7320
11233 14093 1975
9254 16655 1947
15682 18795 12512
15401 19441 5937
10638 10997 784
7148 17763 5969
12201 13673 16543
8720 9541 9607
589 17000 644
3106 16847 16086
16035 16671 9499
8930 15575 12020
18493 18623 3003
14443 19445 14246
14372 17591 9625
16799 17399 19307
7234 17704 19071
9464 19172 15713
16414 18611 10649
18710 19119 18401
14739 14846 16006
19211 19331 6833
13904 15597 2417
4759 5147 6427
4906 5207 1896
7657 8843 16791
17991 19419 15391
15203 16010 6923
16181 18647 1610
18861 18906 15277
14214 17828 14333
16860 18717 7908
8902 12479 17116
4018 15004 13756
15018 17920 1353
14782 14980 5645
1419 15786 645
12685 17121 7551
1773 3698 13208
305 11801 19101
4463 17218 3654
10494 16481 3956
10394 18017 10655
18205 18611 18370
240 13604 17551
9841 17685 5685
10113 11402 14126
2385 6620 14101
10675 12712 3814
7498 14661 12090
17062 18165 16343
11489 15601 16664
17177 19207 9620
18349 19205 12970
4659 8109 2192
4924 9687 13453
9382 13363 6800
9740 12440 4515
13830 17246 1140
8043 14983 9260
5105 16321 1921
8033 14375 12989
7287 8214 2547
8042 13942 18677
3172 8095 782
11617 14157 18325
8646 14882 10143
10461 13107 13488
18114 18374 2199
16379 18152 4810
2174 7929 354
8673 10340 8149
13023 16804 10668
5833 15376 17839
171 4500 2255
11185 18231 2350
6930 11452 2728
3671 17561 6228
5401 7546 12917
2977 3279 15110
3770 8285 17788
13070 14910 12477
17685 17744 9203
10862 14250 754
2923 3577 18952
11208 17926 10386
912 18320 9830
7042 18074 8063
17181 18414 18249
3437 6642 3884
6715 14606 9231
14929 16016 10340
2094 9986 2328
3086 6514 14399
17111 18218 8154
17456 19163 273
6631 17430 19311
15163 17201 1571
7645 16086 438
8543 11122 17252
15542 15815 9139
15240 18742 3241
2427 19465 18054
13417 13844 16508
13371 18634 11102
13167 17741 208
8123 16226 8899
18061 18064 11228
7394 17364 17087
2168 12068 8477
2018 2904 14548
4375 9917 1239
13532 14992 12665
3668 10681 16902
9176 13269 11258
10601 18506 18842
16236 17579 8551
13130 18493 10589
16056 16267 3221
3782 4063 18497
33 700 8612
19400 19404 6772
10769 12941 5686
759 1684 17403
153 2208 11495
13616 14192 3671
12666 18518 10358
1809 10270 6814
743 6302 16067
5950 12513 9853
4237 13218 6942
12702 13964 10862
10562 14653 1122
8225 14266 7372
6819 12597 8159
7118 9715 5367
9891 15050 825
16354 19361 8323
8353 11685 15771
17043 18143 18313
5296 6392 6490
4964 11226 10386
6704 16949 11288
14468 17360 735
17560 18027 6509
18641 19422 7013
19457 19496 11567
1896 5100 17892
6444 16963 17714
3594 7841 15731
16422 19483 18035
1128 8031 1476
10673 17703 2915
10638 15174 11349
19231 19307 10894
7642 14473 1562
12140 18869 12822
11393 16808 1753
17771 17944 10831
13380 14257 7231
10484 18434 12678
5710 7608 18096
9860 19182 9744
6580 19232 13098
12044 14317 16053
16762 17322 15480
15456 17971 15596
18662 19470 14368
9854 15714 10067
11892 17871 18086
4371 12435 2677
15864 18555 15487
1180 4766 16646
14917 16835 6262
6837 15694 3443
8593 17475 1804
13823 16797 1427
16958 17632 14315
1120 17929 2481
16888 18465 15252
15139 17658 9378
18173 19384 1018
17668 19239 14879
13464 18008 7018
13831 15122 9920
5287 11494 849
12415 19462 17787
1494 8800 16782
15779 17511 4054
12606 19113 2278
16890 17814 3250
19343 19372 4934
10834 12927 13338
16335 19193 14837
12355 16362 18656
5667 17929 7961
15379 19046 4741
19387 19415 15878
6250 8973 4426
18357 18384 6870
13449 16686 17930
16277 19086 17340
18821 19265 5801
12852 17667 11766
16914 18683 11945
17142 17970 17205
2281 14080 1268
6029 10335 12422
4596 5634 14065
1460 8921 6302
18696 19010 13811
2615 3961 9867
9843 12599 17321
1158 10425 17521
8696 17658 11044
7253 18936 740
16894 19251 14634
2286 18379 14277
6412 18849 3785
6970 7477 11786
1876 10927 3500
8063 18350 383
2530 6403 12035
17339 19134 11079
3399 14608 12479
17191 18494 18242
6781 16745 14690
7811 11146 9107
11626 15216 6982
3131 7810 2263
2060 12995 11642
3722 18161 17439
5642 9849 9180
18452 18768 6423
8421 13612 8262
7948 15075 14797
16540 18879 6380
15188 17777 4743
14590 14823 14739
16319 16620 18189
8203 14785 6941
14037 15823 1763
14384 18334 10920
337 4199 11545
10089 17245 18321
18677 19010 4485
3274 4105 810
16355 16398 4326
18768 18861 552
17653 18718 14950
429 865 15533
10535 11818 10776
1435 1523 6419
358 17439 19236
16339 19497 2973
17831 18054 17732
10036 15093 8537
14556 17213 5079
672 17232 17537
6844 9644 8433
14214 19144 7403
15834 18512 8586
15151 18662 7358
10312 17038 2459
18415 18973 10996
1696 3960 10855
9395 10396 246
17567 17889 18173
3047 12532 13146
5149 9886 6833
634 19333 18197
14476 16548 4582
852 1028 2875
17998 19471 10147
12606 16290 19067
17639 18614 15479
16535 16544 9547
14483 18340 3539
7144 15679 15559
18958 19302 6367
17686 19410 10179
11311 12795 11538
17974 18398 5522
10894 17563 12085
4416 15963 9944
6553 13168 3654
2880 8261 12272
3232 7571 410
10529 19379 13650
16097 18522 14000
3078 6847 10317
8866 14992 1281
19076 19465 19133
15231 18490 377
4561 6182 19408
12050 12349 17433
16327 18537 1004
5789 11106 7704
10989 12747 6212
3509 16966 4209
9702 16460 8469
2312 11971 13767
10544 11479 2390
12325 15012 439
10056 14853 3967
2782 3478 15103
8867 10730 11814
14331 19320 7267
9051 17265 8853
15732 16603 7332
7447 11411 12654
19375 19422 16350
11892 17048 4286
15526 18554 12011
12061 17526 7076
5309 14210 10525
8019 8411 17601
1627 3753 3743
4879 7743 3300
8149 19164 2159
19377 19460 3587
4909 6852 17442
19181 19322 13759
5307 8001 8339
15545 18305 5824
192 14653 2853
7989 13602 14735
14379 15573 578
18837 19421 18006
1065 13146 3735
1946 19246 1846
8925 11741 7893
13183 15134 14573
15211 17936 19145
3879 10049 14786
18833 19331 4704
1244 5510 9518
16499 18516 198
18879 19479 17510
18363 18368 6398
12353 17176 11611
1090 11882 1675
19 14275 19228
5851 6652 8966
19421 19466 17041
16051 17914 1250
11520 17279 19352
780 10384 17633
5440 5965 5559
3350 5905 7167
19355 19409 16672
4597 15830 6326
5167 18408 4507
14293 15672 18110
18908 19407 2167
7026 17836 12560
8805 11481 689
2005 12444 3030
8050 9604 18750
12100 12163 10479
1666 4513 3788
13261 14578 12252
1632 18046 10347
13407 14024 14105
7756 9962 8166
3493 7059 1944
1851 3916 5996
3354 7914 3054
1353 4013 2111
1080 8914 6976
14474 14820 15721
11450 12156 18518
3334 14339 11667
12751 16769 13371
19027 19146 496
15784 16925 17131
6941 12405 7165
6166 7024 12548
3922 14708 877
7511 14331 8297
12480 16501 4904
9818 13572 6132
19251 19375 18037
2103 7096 5407
15861 16445 8685
4247 5354 9503
3333 5789 4422
10566 15749 16435
12137 15994 1715
10796 19356 12567
16263 17417 1849
8961 11769 3335
9402 14279 9323
14008 18753 6088
440 16578 17316
4739 17281 9038
8767 8898 19459
14795 15228 11644
17785 18541 4740
18379 18669 1540
1343 7156 2056
11955 14593 6966
5180 12002 11315
10020 15262 6616
15410 17748 14076
4647 14890 13540
16018 18950 12834
12997 14627 14763
13942 14096 2870
16546 16647 188
4612 13961 3940
7182 18758 3966
15929 16877 16386
17748 18908 3781
9662 17859 18346
806 12945 9689
798 4442 18659
6177 7606 10236
15454 19398 14380
18205 18988 5443
1692 4089 12367
15790 17061 6710
14623 16592 14875
13905 17669 11494
16528 17075 2272
11629 18858 13136
13621 13653 9628
10370 12195 4133
15104 16686 16097
4379 14428 1701
6330 11595 2510
864 16522 2070
4880 6012 3699
17284 17928 19279
13204 14683 8347
13401 17519 11120
17855 18212 5803
16753 17497 15639
2672 7200 3040
12458 12908 18
4675 18871 14942
2409 11947 3108
17479 17677 12905
13978 14367 13349
13296 14351 3448
16064 18715 16811
3231 10316 17461
1851 2549 6603
10213 15758 2531
18830 18855 6376
8398 10236 1978
15393 18256 14184
3060 5260 15240
8838 16327 14389
11466 15388 14235
16517 16949 15280
9536 17195 17323
14681 16776 7443
13991 15252 6622
10607 13341 4952
7932 15480 7703
19295 19366 2660
15500 16220 3626
3363 14239 6049
10070 16973 3497
18875 18986 14693
12000 19413 9549
17533 18091 12267
11529 14599 16713
4530 15181 9283
15918 17535 9193
3830 15512 11737
15679 18811 8378
1271 14222 6289
15614 18680 1055
10311 13541 9382
18978 19169 8705
13383 16321 3709
10137 12096 17208
19262 19288 1454
3009 18225 8365
16751 18589 14811
916 6068 7171
16931 18597 1583
4697 16672 3021
19334 19481 3497
17738 18981 14544
3540 10270 16844
7498 16258 14919
11949 16187 11784
4850 14358 16859
7202 16046 13990
705 12331 1321
5953 10488 7955
9261 17536 12694
11619 17360 5599
17091 17427 5296
10511 14037 3463
6826 16180 995
11222 16553 18321
15823 17144 15355
14155 19206 17726
11566 12425 2865
6516 15201 6439
14399 15128 11511
5560 9409 7975
19473 19483 7370
14994 18564 17578
14799 16182 18357
1741 7340 7172
10878 12599 11934
17319 18033 10741
12500 13386 11720
10478 18945 19338
16122 18201 9514
6251 11087 2818
13287 14884 11307
17556 19016 15918
17126 17203 16801
17713 18552 1297
14259 16834 18190
4753 17051 6614
4240 14301 11746
7383 10077 5850
16567 19427 17421
13740 16573 904
4158 13623 17500
11123 14427 7313
18113 18159 5918
5364 9534 12173
8135 9605 16644
16738 18113 6729
17074 17228 13189
3013 17975 13268
9156 19421 17601
19407 19428 5883
1966 5739 2424
7807 15231 4469
12681 14308 17715
3365 4108 2199
11103 16371 19246
17566 19153 13814
4854 8636 11457
12310 13460 18716
18322 18371 14828
5237 9279 10627
920 18782 82
1446 13759 9587
56 9921 12905
6716 8948 9095
12851 13745 15491
16648 17781 18249
19249 19426 15887
8549 10162 13282
14432 14511 2520
5352 8093 1259
7230 11051 15207
4527 4815 13515
14639 16240 10449
18999 19198 15231
2718 14492 4341
12667 19316 7236
10190 13467 1472
5035 9101 18878
1987 2624 13389
12058 16963 13997
4554 11921 10600
8802 9083 17964
140 18564 7810
6548 17867 3533
390 16715 5118
3410 19455 2744
11825 11947 6075
11009 17755 12409
4120 10113 16367
1688 2318 5178
4845 19157 19315
8206 18781 13867
18139 19197 10346
13958 15735 9029
17327 19111 15872
17922 19083 5488
4992 12933 4214
5757 11929 4947
1674 8644 6552
15196 16852 8115
17577 18492 16070
6887 7151 17542
13 16402 10758
10946 15217 460
17860 18554 7792
4421 17325 18356
3438 13753 2339
2217 6327 4960
9500 18664 11774
12223 14141 16247
15565 15988 10835
13121 15763 18745
6303 11667 1582
14426 18447 19033
2223 18954 14975
670 7105 7168
16984 18532 8525
6516 17422 3919
8254 12908 16533
3120 3449 15367
1606 14021 1057
15829 17604 8288
6597 10246 9822
1035 8436 7684
3888 9696 11891
17434 19373 498
16522 19011 9833
11650 19473 16473
1624 12990 551
5964 17485 14268
10929 13193 5129
7904 10070 1103
14350 18166 17768
8947 18774 19055
16461 16706 13558
1959 17446 14738
9762 16201 19075
16701 16806 7792
5900 12184 15158
15847 18349 4787
7764 19246 18896
12283 16013 14192
7548 15736 17224
4695 11566 6224
10936 13135 8403
8906 12671 10238
535 14973 18153
12708 15843 4306
3218 7825 14310
11989 14202 10855
8299 8430 7925
10378 12664 822
3951 16909 2902
6794 7374 4560
19117 19242 13031
5404 18370 15141
11353 16695 5892
11318 17594 12705
6971 13436 6378
3082 6819 1040
7458 17058 1010
13694 18039 91
51 2435 17496
6963 14632 3334
1574 9288 724
7657 14265 10540
19401 19451 3467
15902 17863 16831
8940 14591 12331
12681 15316 6004
10505 18237 3321
265 9077 13827
9637 18796 1823
10357 16174 1659
1929 8819 2793
19290 19487 18624
3397 17690 11691
14697 16471 10077
10873 17253 15415
16756 17336 9951
16439 17346 8454
8684 14914 17670
13686 16420 2669
3092 11402 13304
4739 17803 7252
13047 14339 7532
11118 17053 3155
2810 4519 1498
2943 6589 4355
9310 19022 14048
19477 19500 6614
9140 9602 4525
1318 3756 2201
4515 11964 9834
11976 16843 13538
6375 14518 14944
12801 16645 13033
7398 11649 10497
5513 19274 7557
13706 16194 16244
11203 19352 1972
8939 15477 1287
1705 14451 1739
13267 15936 14327
12467 18924 6292
9494 13994 2588
393 15648 1155
9993 16715 7335
11890 13835 1825
10632 18506 16795
9781 16821 8732
1141 11521 13579
13509 14414 4277
12265 12941 10568
18506 19052 5880
4732 14230 15371
5328 10363 14485
11282 14361 5095
15807 19296 4915
2797 12613 11438
5804 10061 9852
6960 7400 13885
13466 16590 1746
6143 15000 12393
18970 19208 16474
1659 7757 7321
15565 16166 12876
11329 14588 7446
2753 17614 19243
4990 9769 16712
15100 18478 4669
8687 12264 4650
17906 19181 9185
7993 12091 13071
7823 11490 19064
19250 19470 4123
2618 4487 7559
4843 11611 15448
15021 15198 13468
6699 9351 18791
15796 16810 1573
4100 13624 3177
987 18610 2235
15094 17418 1027
383 14198 3545
14353 17409 5277
14495 18346 10917
15389 15671 7345
7911 17957 12009
15077 17670 5901
16187 18907 2762
3777 10990 9710
1313 9282 604
1483 2957 8077
11081 16756 7399
5637 16530 14544
3354 9494 9787
13219 13695 14116
6205 6558 7229
17564 18586 11568
6368 12205 3824
6983 14560 16637
19091 19315 7901
8653 12658 5987
7701 14749 16910
966 16558 7836
2648 3993 12490
8278 14270 4841
18883 18937 4905
7453 17604 18655
4452 6290 6489
4984 10992 11070
8550 14984 1209
15684 16886 3636
7078 12838 17034
12227 12629 8587
1944 12579 18522
12865 14631 13543
14963 18552 7642
12450 16983 11125
3576 8800 3280
1938 9474 18788
4934 17043 6601
12431 17010 18899
10695 15891 14158
6188 8349 3105
4962 18609 1483
15126 16492 17964
4918 5638 5717
13094 19142 6360
17715 17906 10485
7235 8706 13305
712 1230 1711
198 1132 7140
11596 18991 12224
12281 15407 8537
18063 18227 16016
10263 19120 13350
3964 18248 13345
11667 13914 1091
3820 8599 12660
1618 6792 5778
3605 9001 8913
8535 18829 12270
3326 18852 11369
208 7258 15268
7540 9426 7623
19172 19474 6625
2411 14100 7931
9126 15762 5953
7753 15253 70
12155 18734 9526
7592 14141 8408
8271 12699 9344
5712 16556 6817
6959 8172 13021
14307 18251 14798
8296 16734 1307
15954 18903 9399
9490 16584 7699
8304 12659 16033
14869 19263 11674
12371 13035 5335
4937 7863 13749
10239 17404 1865
14021 19138 11752
12682 16186 85
3529 12006 9100
17030 17622 8740
18506 18712 15613
16701 17654 5776
18182 18346 5668
2729 10343 4100
10003 12653 12028
3782 17689 8475
15226 18867 18955
17665 17851 389
8628 9653 17271
4477 16120 17665
8010 11827 802
10016 10507 4118
9442 18968 11162
75 16546 13101
8576 14672 16762
16923 19218 7835
14136 16909 5569
6811 14273 176
14864 19400 14506
15903 16857 11592
14 2198 17663
18488 19424 13891
5904 9564 2647
7404 17674 4592
6988 8531 2790
281 8364 14377
13497 15723 17446
11067 14823 5082
7207 18420 17741
12940 14943 3366
11640 16958 4174
12803 16252 556
482 12577 8559
816 16831 13390
14484 19174 4654
10096 14044 2841
15144 16173 792
14076 18327 8965
6651 15202 8260
5851 17159 18648
9096 9300 3544
6610 11040 12717
9923 14453 15446
6647 19335 11056
6550 10297 16510
8420 18156 14322
4557 14619 15804
7491 11523 17565
10578 12623 1329
14102 14411 13593
4638 14433 1424
17579 18437 4123
12182 13216 4564
2715 18889 2026
17263 18522 2506
7173 18620 6036
15680 18336 14768
6737 15873 16039
16121 18007 16071
5980 18049 13466
15970 16868 12264
18647 19062 16746
6839 9911 1441
11641 16750 12475
10238 15227 3885
16690 19333 8568
10286 18852 2086
10712 17796 12561
10163 17713 7245
8487 17089 10330
18233 19232 3597
8121 12087 17471
6695 10570 11070
2410 11598 925
6399 9867 19026
15524 18836 12741
3149 5188 10514
17179 18859 5214
1615 14199 6256
4474 18236 2917
11809 12912 9868
15250 15661 12266
5373 18239 3021
5582 7707 18141
1253 3824 18381
5370 19364 15289
6752 12155 6581
8312 17014 13822
5616 13619 6850
5155 10527 9145
18298 19014 520
15809 19287 9313
13120 15168 2528
16839 19415 1188
1045 1375 16004
8237 13058 19347
9035 12755 15624
2363 5583 7143
8960 11993 1058
8100 8280 2956
7218 15816 2659
11563 14061 13501
16178 18206 10017
6106 11893 11468
14728 16010 8937
17832 18474 17321
4417 14453 15566
7729 11121 11324
19177 19472 10152
4506 13715 8624
5532 7789 5169
4556 10176 18208
1788 5993 1378
8846 16006 6342
16940 19376 3009
5320 8775 17300
13634 17581 9460
12657 13643 18698
8023 15186 11072
15345 19003 5542
10030 18221 6531
693 4914 280
13663 15713 3050
855 2999 883
9804 14332 8416
9198 14942 422
3016 18306 9896
14595 15572 3973
19328 19458 12514
2341 7764 7696
515 11141 3219
18096 18691 10599
13559 14842 2056
16967 18627 3996
11011 16713 17850
8703 11128 6616
1299 19111 15456
8316 10025 12781
6466 14725 1855
990 16763 9051
15155 17940 17736
15425 18240 9493
16252 17908 18716
11328 12498 6515
18061 18412 9789
16400 18084 18624
16430 17225 13894
13569 15732 9151
18884 18963 14317
15022 19024 12381
14677 18299 18737
6522 10386 3612
7206 10213 6756
11655 18151 3785
1781 19166 18569
3429 13011 4183
7501 18311 9656
11633 19277 7960
15655 17748 1278
18970 19105 5952
5409 18315 8911
14945 17105 11238
6998 14625 9482
11420 17017 893
4470 7259 18571
11323 16570 12423
6808 12891 10925
10514 14480 1882
18823 19417 15587
5667 16207 14618
9725 11227 8008
13536 14594 15059
536 907 4376
15595 17696 17062
15125 17919 18685
4066 12200 12414
7289 9440 19306
4899 15908 15867
11522 12484 16006
6132 6363 1662
914 14949 265
11557 19198 5063
8685 14262 16908
19055 19405 659
19389 19420 12695
11005 14343 11769
17293 18154 1225
6799 16672 7598
11868 17511 12251
4726 11928 14548
6124 8943 7186
9047 14638 1283
3944 11774 18335
7310 12374 230
11679 16472 7249
12692 18277 4029
7680 12607 19072
7071 14888 4346
631 5840 7510
18592 19237 1933
1256 10748 10028
7048 10615 4788
4844 17341 18962
15439 18107 10753
1184 11346 14171
12977 16870 5232
13545 19148 18992
11952 16583 11723
15367 16569 6144
17798 18779 10031
7146 13846 7116
666 2407 10219
11846 16098 4619
16701 17586 16683
16522 18373 17415
14562 14855 4546
6339 13443 15869
11974 16785 4262
18555 19230 5309
914 997 8579
695 7478 14641
13812 16499 11794
13857 19321 2935
9213 12940 6728
18355 18884 17575
8244 15173 10321
10775 16730 7772
13924 19114 13192
12259 13901 7414
11060 18325 2767
2919 13777 11908
15991 16939 16279
15406 16562 5183
15156 19448 17298
18428 18482 2564
6870 9973 5843
337 16064 16823
11779 13360 17349
3495 4452 14454
2978 19132 335
11064 15543 11636
8519 8826 8103
15036 19155 4763
10292 11964 15987
12836 15673 6657
19389 19422 11410
18376 18649 1084
11824 12588 16932
16392 16645 15334
11643 19237 17241
9008 14892 3701
4367 11461 834
9427 14154 4640
2326 16810 10179
13760 14195 2644
3238 13440 3827
1692 5102 13023
1600 16188 10815
6307 14038 18927
12610 12706 13021
3530 10361 11752
13773 17525 8478
17046 19493 11673
5518 9963 19188
10822 12764 45
18656 18899 5898
11389 15943 13689
3208 16243 13163
18183 19169 18385
17482 18955 68
4261 18866 5246
2033 6881 5270
9133 10302 12056
16122 17892 16654
264 8719 3163
8587 15555 5228
12229 16987 6016
9575 11501 7726
3683 9709 13803
1758 18092 14372
10822 18490 6272
7522 10446 19164
6858 11750 1364
2612 4844 3165
12077 12566 16881
1363 9076 16867
9835 19091 7661
13788 16874 4387
12794 14711 1359
3635 9880 3897
1549 10547 6183
14571 17430 11996
18594 19194 4117
17925 18474 1202
9927 14609 7020
15492 18079 2563
8325 9926 5717
18754 19398 1496
10652 13368 348
18733 18922 13857
2472 16569 16590
14089 14228 6671
622 1685 5868
13670 16699 3528
11003 18258 14797
10005 18060 17559
17240 18676 15803
10408 17091 6086
16445 16523 17972
14380 16906 14921
1961 3887 6412
2097 17839 12055
976 12128 1395
10070 12270 1865
6956 17120 14478
16711 18209 11083
3763 12133 18239
6307 12480 14825
13242 18544 4487
3789 13795 19465
1076 6564 16352
14953 15928 13357
13981 18031 9396
4878 5466 18267
6239 8226 16983
4749 12646 4812
12205 17751 15130
17584 18417 5738
7958 16866 4906
14145 15973 1377
19294 19422 5568
5313 8829 5207
13184 15090 19475
7389 7915 291
6561 10698 17026
3769 16016 12802
6672 13457 16931
558 12280 16420
13323 18729 10253
3305 10493 4653
13815 18750 8598
18015 18636 4195
10160 17373 11983
3480 12626 4003
10347 14204 7560
8818 18849 6503
5944 17987 5507
6956 14861 2312
4464 6707 10035
16233 18106 7036
13912 17377 7413
16054 16728 18848
413 4134 16735
7923 14402 3986
6475 9845 8076
18602 19138 7279
12834 14114 15485
15937 18435 13041
2897 3149 17656
12512 15283 3139
3680 9015 5497
17211 17554 17271
1486 11065 4046
13636 18417 15506
3311 17666 6242
330 7498 19205
17568 17657 7149
12686 15790 18831
4323 9617 10431
8830 12298 14152
13291 13350 18316
6528 18275 13714
1603 17742 2892
3141 6116 2377
11615 19139 16902
10101 16984 8942
1434 4424 13070
6911 13682 14296
4184 11990 4123
7545 9330 4125
18537 19084 12924
12612 13714 233
3059 3331 2057
14159 18435 6228
13031 18780 11807
14106 15286 7627
8342 19145 5325
8174 15955 4982
2191 15676 5910
633 13301 1346
616 718 2791
6991 13198 5228
7253 8173 11320
6115 9753 15804
13216 15171 4902
16225 17423 13989
9478 15774 15088
6173 15121 15676
12936 17232 12501
11762 19001 19222
7858 13980 5833
208 14298 395
16396 16613 14446
12742 13790 6040
5512 12182 8533
16064 17575 6512
12200 15149 2370
7236 10847 19493
2909 16020 710
16850 17762 12809
843 2769 19456
11192 11267 4350
820 16460 9099
10845 15908 14657
16459 16590 2912
11823 14950 16948
12811 15099 15866
1254 17365 9410
19149 19369 1083
11486 15346 14559
8937 14971 14659
5843 16852 9681
17783 18673 8745
5923 15438 12244
19198 19283 3467
235 2577 362
14378 14945 17537
2918 16597 1890
5138 5290 10663
4536 8758 13335
607 19257 17425
14421 16180 3736
1582 16696 9431
7042 13310 4832
78 7352 5855
19476 19493 10232
4839 17332 1398
13702 16804 2724
3548 17968 18889
11129 16721 16435
13407 14327 17614
16556 18178 7039
18045 18614 4729
18209 18770 5939
7772 12055 9072
8794 19012 18355
14258 15405 16232
245 3395 18859
17612 18251 11843
4499 10171 7051
6962 11698 2423
6970 16696 11284
4776 15034 18559
14569 16012 5942
2546 17047 10041
2912 9749 5933
17551 17939 10902
88 6571 14902
7354 14491 11697
12081 16784 9399
12618 12688 8426
1269 12105 14349
17346 17457 17917
4270 10247 12147
1756 7344 15217
763 4648 15824
19044 19430 15185
18605 18829 8412
3910 15905 11926
1777 6045 13823
9254 17099 3034
8151 16976 23
1620 19089 1693
14225 16407 15215
8943 19003 17580
7677 17881 10785
15903 17198 13427
14177 14756 10720
7809 13529 12861
16880 17323 563
14584 17847 13869
1102 6779 15406
14155 18473 5487
17535 17790 1655
10043 19213 12949
3181 5643 10778
6523 6819 15446
6636 10971 10558
6438 15130 18226
603 7974 15746
9965 10198 970
5672 10034 803
14694 16272 4076
13331 19054 11090
14721 16308 10873
9372 11591 14506
2691 2834 5273
16228 18780 15532
4476 6742 144
5275 16235 3122
11918 13817 3317
14062 18744 15889
11294 13310 16736
9457 12811 10841
18299 18633 4566
12347 18312 17730
15569 18339 14508
18890 19152 11525
5867 7186 18887
3024 18385 4519
18512 19079 9695
3888 5372 5885
7848 11533 8076
1306 12407 12889
436 5704 3337
5125 7305 5472
184 7695 13510
13671 16780 1984
19347 19493 19371
8259 8412 9470
18278 19235 9315
7089 15455 11138
2183 3447 6319
10322 18136 9997
14925 16012 9169
7615 18930 2965
4315 18125 7775
14846 17229 10833
16160 18290 4959
7230 13023 9456
4149 13866 14575
9073 13383 871
4781 13839 2296
19214 19309 10644
15648 17357 17234
17573 19216 8847
6349 8593 7029
7820 15284 2512
384 18747 2350
8440 16001 5951
15362 17365 11885
444 3046 18974
9363 17845 17341
19326 19408 17679
5973 8621 10210
18657 19244 14820
7466 18881 10723
12571 18384 12176
19033 19161 16171
771 3840 18171
16355 16728 13270
15099 19181 17626
6278 17206 9195
13694 16976 6182
12049 15670 4083
3539 15197 5339
11583 15781 11944
11316 17865 11045
15719 19147 7205
19233 19376 17830
13093 17139 6890
12626 17819 4752
14371 19232 12940
12531 16298 1449
6269 15089 2647
13886 18733 14455
3871 11096 2982
9333 12381 9645
8627 14531 4677
19457 19491 7781
13425 17176 8206
7079 16331 10344
5942 12454 692
11131 14108 18466
7669 17530 2064
6542 15357 18863
5155 11683 12839
15789 16029 5656
1333 18733 12377
3302 15366 392
18619 19118 18371
7775 14302 19223
13176 13402 6445
9500 15632 5777
4326 19025 9827
15770 17301 2266
7596 8559 3271
6396 18584 2958
3258 3280 9177
8920 11451 10580
7075 10400 1279
14173 14278 14137
1936 10067 1734
6012 13747 17129
17828 18965 6257
17143 17234 1588
10421 16213 9025
3353 4472 12961
11969 13275 5134
19464 19475 14883
8995 18772 1237
10802 14441 18459
19129 19470 2507
12770 14730 12998
6379 19325 6318
11517 17069 7807
9722 10426 1438
8276 11921 10258
18974 19418 4577
4215 5516 1849
9214 16203 2121
18164 18964 13536
7815 11511 4747
8074 17524 11462
12955 15883 2828
4600 13798 13739
13400 17095 9147
16019 17053 13552
58 3079 821
2634 17240 6810
8207 11707 6708
11177 16185 1908
17735 18422 17441
15317 18830 16771
3077 3725 17276
65 2589 18093
7122 13845 11909
10815 18069 17211
15502 18276 12848
9591 18377 16840
8932 10806 12021
3497 13370 4350
4426 8536 7126
14867 19100 14760
272 1378 1963
7519 16053 18956
19208 19225 11466
13640 18957 1447
4429 6622 11028
18425 18663 12362
5788 17730 12649
1093 9471 18066
2756 12289 17103
13334 16723 11294
6959 16620 4221
14497 16206 11650
8648 17264 19422
1447 13428 17260
2372 19048 16893
11876 12272 5346
3388 10480 10818
14677 19081 12967
3883 15899 4114
7727 15110 15569
6929 7592 14980
10908 15917 9552
12402 16966 14803
4010 10252 730
6237 9622 12603
8873 11108 6442
18683 18978 9529
15259 17781 8488
14707 15473 19194
1751 19193 15219
15756 16913 10636
19178 19225 12726
17058 18280 8529
7640 11747 11585
8124 10400 10673
6690 14311 2179
6642 15267 10460
548 18947 13487
5436 11177 11271
3561 8653 9783
10531 13379 12621
6720 13258 14948
9323 12318 6526
6019 16481 16761
36 9621 5228
2277 14144 16291
11768 17871 17514
6067 15857 4623
18597 19040 5725
10981 13406 18041
12013 13267 2663
15608 18071 11513
2928 10073 867
6124 13320 10729
16980 17036 15151
15285 15452 10508
6104 13165 3427
13489 14290 3732
17306 18626 1758
838 10435 17727
3685 13370 9563
9370 17789 9679
1568 17228 7065
2728 18531 8923
8080 14055 6983
14214 15109 1532
16698 16725 3184
1976 13879 14637
7755 19180 1587
9503 9720 7014
15100 17585 5528
6560 17657 4508
9567 10980 2677
3354 11916 3758
2155 7811 14400
19266 19461 2229
13313 18716 158
10571 17792 5476
18438 19477 1303
14401 16983 1747
300 16195 5336
18672 19286 12026
1159 7663 10795
7494 11658 18355
1535 14823 17733
11514 13661 15711
16862 17968 10027
6928 10056 3415
8081 9248 3073
5172 8532 8605
4355 10983 2421
3993 10678 6252
434 13731 6309
16787 16836 1874
19264 19316 18746
5812 11252 15317
6099 6907 10854
11867 15508 2551
4966 12049 5212
17579 18123 4792
13506 17544 6865
6331 10908 12913
14338 17942 17477
11909 18795 3591
10022 10245 16760
14503 14929 8017
10544 17960 17380
7496 16543 14170
9556 16080 16257
5421 16803 5526
13177 15753 11951
17217 18016 4147
14879 15617 18519
12145 12175 10448
12135 13400 9967
7916 13518 2948
3651 10401 2609
3553 7461 2743
9335 17096 3867
17886 18239 12624
1563 8388 7645
14039 15940 8706
12702 18712 16742
2265 3257 13799
11336 11739 14560
11105 13483 8685
1621 2771 1322
18795 19032 10134
18778 19216 9048
1537 13237 3569
10757 13144 17713
603 1754 12240
3242 7895 6520
6676 8778 1720
2111 10789 6635
11344 11695 2096
1889 10369 3894
5582 5940 17601
3118 16908 7917
17253 17380 12676
10599 13605 12761
11629 18279 15668
17846 18084 2408
1860 1990 8593
7351 11312 13114
12023 14927 13848
469 13356 19404
18224 18465 15932
8200 9814 15808
1861 2120 12069
746 5668 12553
6383 6515 18125
16805 17977 475
3299 17035 2331
5561 17588 14769
11762 13791 14659
7507 14365 13927
1758 16160 2804
2665 15514 13500
16232 17159 16774
5766 11803 13144
6961 7449 1429
5115 19303 17931
12610 17850 7424
8790 16288 19371
16950 17854 16458
6929 15233 15021
14838 19481 9065
16999 18401 18279
2360 6254 8279
9993 13747 15131
9039 15039 16827
10648 12425 11062
1092 9488 4913
7638 9853 18946
18394 19068 2905
2871 5292 16348
16619 17047 3467
8775 16978 13745
4935 12463 14975
2773 4681 7799
607 15139 1723
4474 9697 9801
6625 18109 10007
4154 12098 16983
17436 18242 15625
4969 10324 944
18572 19454 5086
9855 10916 11914
16820 17154 11874
7113 17795 3878
460 11671 2864
16512 18571 8087
1632 18247 9586
7515 18373 17694
1453 10637 4436
12951 17438 13334
18279 19050 12003
8879 13539 9552
1847 15104 17156
8421 12418 5861
6717 16913 2827
7711 15004 18420
10931 16179 16538
19337 19492 463
14995 17456 8633
19150 19490 6130
18306 19009 5823
3247 11597 2618
3477 7792 17931
524 1189 11270
18854 18970 18437
7269 15428 13750
5143 5462 203
7510 10963 10283
17971 18441 10989
19479 19480 11869
10491 11520 10274
430 5480 11668
1276 12789 8142
10547 18538 7674
13915 16970 6791
17958 18351 15541
3506 14906 18324
11923 14029 17226
8217 17365 18809
17054 18017 9330
16709 18881 17018
18708 19047 5818
6922 16160 3911
16356 19348 14093
12088 17066 8960
6829 12593 18011
9685 12485 9250
4054 6945 1354
1564 2328 18957
2778 5309 13189
15554 19012 901
19374 19380 15276
2785 7635 1422
919 15100 5791
9098 17184 13197
18797 19271 13168
7861 15742 4785
7486 10454 18417
6857 7721 4057
2787 2905 18695
3262 9058 9765
19181 19266 12090
3748 16623 13225
8073 14840 3915
17477 18510 18253
8663 13623 8091
2484 5941 18408
17098 18201 11838
2113 10440 14726
2510 9246 17875
11130 13103 6445
18709 18727 591
11413 18937 9190
7191 19224 698
1335 15895 1651
7688 11591 16824
1305 7694 18470
18645 18828 14632
4193 6044 5271
7902 19298 549
317 3117 15056
10274 13774 1762
4767 12237 14770
5504 11750 17775
14819 15248 8656
6804 12782 7369
16925 19002 14041
4644 13425 18415
19407 19492 18141
808 3759 17895
17243 17609 15850
14504 17296 15944
13548 19232 1853
10008 17060 18186
17943 18876 6679
3464 17430 2945
15185 15443 14844
18278 18686 10365
3142 5555 17922
3106 18072 10742
4901 7220 12465
11282 15084 10593
3512 10323 12207
13965 18786 8023
14618 14765 13835
17576 17789 382
7835 9700 5569
8446 16624 6708
15110 15367 16773
4160 18761 16328
3298 6957 7787
16932 17047 11547
11837 13501 10703
16967 18686 16020
18192 18831 12666
15351 17982 1868
10606 17927 5419
10947 19212 12581
5407 18368 9193
13170 14127 17570
6637 7974 2877
781 6831 14332
7070 8996 10585
5961 10486 2847
14862 15979 2349
6970 14929 4655
6904 12236 12368
17366 17922 6975
1379 10202 409
4687 17421 1751
10291 12300 14371
4681 15289 1931
17746 19479 10145
2435 17288 17008
87 3276 17480
9668 15591 18701
2272 19421 7
16133 18273 8842
2688 4711 17332
4288 6164 8046
8027 11538 9715
13904 14262 7943
7261 10955 16746
15546 18504 10744
10600 14279 5866
5975 6319 4906
8123 9436 9537
17401 19150 18123
16052 17507 12730
217 19147 16467
7441 12646 6692
9254 14263 916
10370 17542 12313
15998 16650 9653
1377 4893 8510
1966 10050 5000
15434 17947 14128
6918 13218 10654
18781 18960 8153
13380 14480 9353
919 5617 15886
10008 18277 18597
3682 9972 16144
9394 11159 14532
9947 16716 7415
2436 3500 18099
3974 19485 6857
16074 17394 14623
6476 18016 14627
2082 18816 3103
15401 19238 12761
17284 19167 8036
8197 14106 2292
11491 15014 12949
6768 17340 5704
9080 9853 8378
13313 14188 13584
5821 14265 5451
14783 19097 6602
18206 18768 18776
15565 17094 8199
11279 11626 15008
6593 14649 5127
15718 16732 638
12701 13648 8357
15116 15630 2975
14121 19465 11766
6512 17738 12923
11006 18251 5976
18643 19156 8054
2543 15120 12056
6782 11881 15448
10969 16644 10854
6441 10168 1163
12849 18882 13274
4839 7932 17321
9998 12897 18933
10134 19477 1209
16665 17121 7279
3614 11654 17874
5848 16843 6325
9224 17294 13744
9229 14453 13320
2703 5057 6315
3745 9106 17619
15593 16550 13880
13122 17652 7372
7844 11128 4516
12418 16015 3675
10257 17915 9925
9005 17539 7233
1258 7258 6989
17686 18720 6224
19363 19450 16512
18593 18695 1243
2526 18221 9611
16797 17445 11166
6596 12452 15830
6498 19199 10076
2030 3180 15229
15708 18280 10683
13182 17257 3444
12408 16349 11748
6912 9956 17417
9657 11327 3436
14922 18189 16371
6886 10925 5539
12633 15427 11238
13637 13825 15364
6434 13260 15659
8434 15943 4698
1321 12607 7638
10548 13393 16850
8617 10932 5535
162 11012 2473
14699 15864 10206
2191 13671 2967
1797 2901 17175
4300 9211 4158
6983 9882 10339
2592 4088 12628
5682 7252 1729
7105 16965 11670
5954 12627 4758
5427 14893 17640
16669 19151 14814
12798 17792 6431
8880 17491 11824
12493 14181 12253
16920 19243 17985
13501 17141 19489
8089 14682 2675
17830 19046 3583
14350 17595 6753
2283 14009 11834
9538 13191 18010
2819 3014 6750
8564 12393 11584
8880 18780 11990
12478 15011 13586
1930 9461 9406
8282 17004 1680
3310 18698 6745
15885 16769 13392
9272 11897 5146
3910 7673 11965
17679 19483 4469
12612 15493 18229
11868 16731 16428
15537 18909 17057
15577 15659 19305
392 12690 5191
7470 12061 10276
17399 17596 12213
14539 15154 9173
4116 5263 4723
6343 16446 288
18068 18758 1664
14147 15147 5863
5252 7780 2973
3660 13196 16361
14259 18593 2185
5664 18071 2765
3295 6220 6212
13986 14003 13730
7091 7851 18246
1588 3612 1388
9677 11139 15702
1518 3211 4175
6225 16437 9100
10531 16180 9358
5984 16009 1764
1303 3726 1022
15739 17725 4894
2819 11425 12326
10876 19088 1140
1356 5098 17493
18280 18680 5820
5083 14590 14559
13942 15935 6568
14060 14106 10715
11494 11842 6682
4006 18973 3131
16856 18004 15419
9367 11238 13636
3441 5696 16937
6150 11864 4608
15097 15507 2669
8834 18251 9485
4143 11335 8708
15642 16242 18450
756 4522 9352
17447 19252 19320
18559 18735 7955
6450 14063 11276
15684 16704 13343
11709 16073 8651
12184 18904 4267
2047 12432 2494
15672 17153 18616
1994 2362 11927
17503 17921 5821
9930 16881 4962
10389 18126 3214
7319 10528 15396
12014 17104 10813
15899 16395 3853
2785 8050 13936
14064 15734 1301
17632 19102 18936
1881 7878 18808
19236 19467 9938
16816 16868 1124
7314 8859 14652
2675 10721 4752
5440 19290 19211
5832 9493 16070
6374 18403 6543
16191 17349 9843
8504 12228 125
676 11200 10529
591 7050 17285
7000 18157 1904
13629 18310 3677
17270 19466 3138
5662 18680 6453
17668 18139 7683
9041 16294 16213
8656 13889 7051
13217 19387 11786
5130 5487 8428
92 302 6586
12019 18123 7462
9068 17533 6602
14819 18392 10607
9885 10724 5236
16675 17740 1277
10235 13013 1969
4551 14977 5775
14592 15285 17204
4422 16274 15801
1062 5411 18922
12445 17429 13302
15350 16502 15265
14332 17274 17660
866 18946 846
1169 9118 3391
12622 16919 7850
2027 7669 17420
14690 18855 3332
7346 18937 4632
17588 18948 14891
9344 12811 9440
17128 19047 17357
18164 18553 19289
11423 19311 10858
14858 16533 11510
10383 17455 3075
2672 7020 2388
13411 13485 16201
5782 11497 6776
1030 3742 5523
12009 15811 17694
2361 3692 4270
14435 17804 17106
6861 9562 5621
1194 14987 15174
3826 5636 3048
13570 14842 7498
19155 19264 7143
10389 15606 6586
2881 13013 4373
10894 17054 1817
9214 14435 4461
13024 13045 9
14637 16865 6811
18472 19009 10563
14489 16630 185
13580 15668 16662
6499 6834 19180
12471 15130 15096
18288 19369 3190
16348 16845 1742
3094 16096 11556
3991 13621 4755
14279 18692 5413
7532 13119 11889
10659 15502 1037
7307 12962 12091
8815 9576 7805
17155 19214 5845
7295 11213 4327
6084 14966 1620
13050 17113 8025
9045 10902 15783
18949 19388 5143
2597 6183 7089
13926 15368 16949
5383 17258 13186
6335 18898 14276
9547 14070 11255
9826 12886 17634
8868 12411 7602
149 19216 1452
6156 13749 11558
2286 17698 10882
5459 15496 14490
14965 17726 14604
17148 18917 3881
4385 7279 1161
4632 6583 10779
4210 12309 1939
3751 12168 17826
4855 11152 365
2950 11813 10317
12463 18011 12452
185 222 11011
16351 17769 8431
4894 18446 16333
14320 15960 8142
2235 2574 6236
16754 18619 4802
16100 18548 913
15414 16271 764
9623 11351 2162
4557 10946 17531
16829 17585 3315
18787 18838 17855
19275 19379 13368
5644 19042 5258
11862 13523 19287
10956 19416 11544
12652 16925 14430
3951 11108 7117
2398 14042 14221
9728 14610 8391
9530 11856 9588
14823 17494 1194
8627 13700 2243
13148 16546 2321
8876 17694 2799
17647 18383 4709
18667 19482 17199
6434 15347 2304
1358 3954 13610
18620 18703 7331
14424 19279 17519
10006 16949 6785
15868 17414 15781
2214 9435 8109
1542 13040 16633
1984 9319 6824
11669 18204 11509
18210 18872 18760
15832 16900 2713
12475 13295 17749
7766 8858 4914
12693 18994 7885
6921 7347 12484
12145 14615 4485
14537 16279 5212
8968 16957 3117
1771 12019 15364
19046 19360 6024
139 2204 1646
13647 17397 3523
3471 16501 4017
2225 8576 1895
1718 5733 13158
10096 13051 9829
12903 19287 17559
12284 17049 9538
17241 18937 11794
4980 11148 7562
3692 15658 4938
4744 14896 7331
4987 15103 4420
1619 14312 4331
11274 12216 13156
5462 18598 11710
12602 16143 5759
16959 18355 14049
11102 13162 13902
1765 19180 17009
1556 19140 1461
268 15647 9679
17631 18843 198
11530 16396 7279
6905 14205 16485
7458 8965 16886
15418 18245 2613
18108 19440 5873
233 12871 11360
19004 19447 11473
10503 11081 6536
4507 17671 17906
14924 14993 12108
14809 16398 441
8425 13818 14276
8130 12444 19121
14826 17927 10172
16465 18924 4890
15198 15539 1229
1385 1411 13590
13699 15313 112
18091 19350 10048
6676 7063 10788
7535 18972 14366
9971 16942 4792
3778 7882 9659
6667 12246 2698
1366 17011 14802
6713 11683 4968
13189 15329 978
13678 15334 6463
5399 16086 1103
7859 16102 4065
6877 18026 11735
11293 12554 6467
3911 8325 4951
7656 12776 17918
7940 18172 4243
17986 19465 5875
11477 13577 9705
1244 5243 4595
18830 19175 5052
1246 3139 2147
1651 10054 13419
17724 18976 14066
12111 18562 10089
15762 16641 4950
14734 16925 17825
5614 7054 6252
14432 17010 15190
11869 19369 18545
8033 11386 18827
17723 18563 9022
4222 16001 13769
14592 19000 2014
1363 4222 4215
17021 17555 16865
1270 8565 14554
13554 14914 14683
6177 6482 5134
7608 9597 8894
10130 16614 7524
15387 16178 1941
11983 17284 4540
954 4517 3815
14622 15819 11533
1220 15706 14148
6778 7428 10000
7604 16313 15024
6990 13309 6181
6756 15065 7304
4977 8388 3197
4795 13534 18359
7481 14638 12468
6107 12036 5719
551 2067 2353
209 18013 7836
11986 19075 14113
9677 13104 17630
2975 13356 3057
11775 18294 4395
12976 14219 16440
7408 18447 4270
514 18852 15695
130 10447 6362
3539 12037 10623
10812 18663 7535
13723 13725 11097
2456 16615 4343
13499 16486 15016
15094 19361 4523
10541 13043 11502
13751 16111 8716
8640 13995 15190
13575 17706 4890
15119 19379 486
18470 19368 18217
2561 6475 2667
12597 17933 3387
1774 9033 7157
2687 16459 8429
11200 18747 11524
7540 14689 11107
6865 18231 6149
3441 15614 18195
1081 12856 1851
3757 8567 15653
760 18201 11022
17059 18795 3724
4677 12674 15448
4008 10254 12539
13566 14971 5684
13792 14710 18199
18970 19385 1989
3724 15664 11005
11370 14160 3038
6706 15804 3390
14603 16666 1959
1975 7280 14821
1293 17496 13806
2410 19409 18129
10001 10293 10889
17916 18093 17214
6254 17122 11740
8708 9931 14608
16613 16691 10326
14408 17096 4934
17519 19335 12075
7903 15079 12248
6713 16954 3589
17274 18742 7368
5575 11450 18472
17039 18334 8329
17822 19063 6151
15857 19085 10322
15175 16669 18913
5062 14046 9457
12180 18600 6437
16158 16587 17098
7998 13241 12020
19214 19423 16509
18788 19310 13530
14305 16794 19154
18649 19251 3765
322 6143 16960
15148 19044 1175
11574 18237 2476
13161 16067 13809
5267 15877 7342
6108 10175 3989
10216 11663 5280
11263 17810 16209
17137 18381 7823
4224 19455 11683
5110 7860 9477
776 18747 16039
19392 19476 11868
2066 10067 144
1226 3394 5448
18909 19433 12144
10449 17333 1381
5793 12397 18272
17446 17711 12608
10313 11223 16243
15567 19123 16849
11911 19365 16127
15724 18540 8537
243 6216 5258
17714 17931 501
3224 7851 15555
15926 17789 4553
16703 17061 8242
16510 16515 15860
9865 13402 5597
1488 9803 219
16541 19324 9176
17981 18282 18555
9993 18160 13960
3003 12821 6350
12578 17382 7297
16067 17004 2629
9659 12869 7521
6827 9201 19013
16635 17911 6792
2115 14311 3417
2555 14762 12988
18398 19126 17540
703 16793 8094
5917 15722 12182
18194 19092 4103
15717 18149 2727
718 4182 10015
13565 14613 7416
493 12544 8140
5012 15806 2475
7753 19096 18055
7583 13501 8032
17372 18217 14085
803 14587 3658
14634 14684 5807
797 18214 6460
9771 11175 9412
13623 17426 16268
3370 9253 19191
18676 18691 1609
728 7853 2729
15884 17548 2486
2569 10822 4600
682 16714 10771
10335 14525 8467
15937 18012 15762
8795 19422 15650
14428 15174 3746
4043 14097 732
3575 15067 5804
15675 19415 5733
12092 13850 5757
7543 13266 15634
12912 17193 11736
10234 19117 13109
8948 10959 13480
16199 17513 141
3535 5895 12343
4435 6896 8911
3862 4755 17395
17250 18382 8177
5254 8876 19052
15518 17112 6306
7040 17814 820
3555 17487 19238
12492 19081 15579
16436 18445 7298
15151 17517 1100
4452 18578 3155
6912 12829 15061
1580 18090 2181
13552 13716 4310
2101 2388 15809
13006 13348 10411
6131 11622 12871
17726 19231 2475
417 10471 8912
315 18204 5630
3219 19347 12207
11528 18189 5845
9186 18093 17912
13056 18568 15593
13947 14052 17923
11420 17320 5344
19275 19495 4631
14007 16063 16432
929 16076 3519
3662 7937 6091
1976 14049 19196
4287 18311 4510
9077 12471 705
18185 19478 17417
10658 11956 16252
11964 16073 3686
14147 15907 14564
1714 13272 9737
1503 12324 3734
10468 18507 7579
8994 18513 5276
4102 14132 16328
9030 18255 5222
7102 13134 1335
11548 12127 4972
17444 17939 8292
3240 17073 629
19498 19499 7790
2496 7741 18582
15762 17358 14708
14769 16476 13219
19426 19462 3333
10785 18349 9671
11596 12934 4883
12987 17500 17673
648 15702 14078
16422 16780 4367
16073 16309 2038
9220 15817 2762
17567 18827 3862
13335 17041 7534
17127 18706 18127
2981 18440 548
17263 18750 11493
18005 18634 8163
19326 19468 2038
5035 5896 4460
11408 15341 18092
9148 13066 14250
6047 15951 604
7221 9112 2887
131 513 698
14201 18380 16290
12137 16081 2246
13760 17017 1885
14145 15094 8211
18611 19215 4644
13180 18287 10043
14997 15507 4240
3306 7433 2854
12884 17725 2707
1019 14764 1760
3331 16781 17861
12780 13697 17306
6894 7784 10299
14769 17482 11676
17147 18169 16335
14680 15783 12311
11042 15157 1310
8561 18911 83
8728 11163 10832
7042 17944 2082
4397 8978 17303
13276 17017 7354
13687 18029 77
2823 19399 1491
7891 18633 13749
18161 18630 3289
2571 16433 5908
13705 15355 17227
7182 17330 6609
14802 16657 19217
15807 17720 14369
6990 9078 14391
18662 19438 3217
16073 16627 18714
11127 11907 7877
17365 17695 11752
16764 18297 18099
15347 17803 18536
12296 16069 9489
19350 19407 4976
6796 15107 15474
10280 11017 18170
5997 9399 5189
645 2779 19481
12430 12989 13323
14693 15936 17219
7012 14539 6733
10224 10379 18436
17225 18680 3069
9064 18534 4336
1874 1934 7789
2772 8272 2689
9522 14633 927
7808 16721 6211
18828 18852 4818
10504 12568 10074
7104 17450 9813
14593 16086 18500
10961 16821 16244
14932 15544 6365
3971 6979 2126
19251 19280 5000
17015 17732 8390
11699 16462 997
967 8146 13718
17379 18118 4047
8301 10696 18322
14561 15565 5610
7494 15349 2316
4950 12855 2017
13751 15196 6172
13847 18322 4163
3491 8199 7789
6832 18936 11893
7274 8995 13600
17188 17816 1832
13306 17328 6382
19317 19325 15255
7895 17497 1142
15632 16129 2691
10159 12117 4078
3179 3510 18699
8794 9497 11525
8090 16445 3463
16957 17778 2420
12483 19313 17704
10392 13646 7396
19378 19417 929
4923 16557 13469
9818 18576 1287
14673 17701 18683
7070 8398 5856
14649 16172 5855
6725 18680 10704
13698 18700 14918
3130 7365 17868
2967 12835 11210
14866 17101 15286
17517 19280 12961
13449 17491 2297
11101 14784 2716
3459 9371 6997
6242 16323 19420
12917 19365 12128
18599 19300 15356
7498 9534 16768
16290 19262 17280
17207 18211 17098
15254 17425 18548
4033 10324 10602
14908 19044 8409
12912 13728 18001
11685 18383 8989
546 11573 4960
17307 17371 3623
2225 2898 17735
20 12481 342
10815 11842 4972
7658 10748 2602
7220 10823 16939
13554 13561 14878
13237 15395 2963
8096 17805 665
11307 13287 13786
7692 11532 8456
7804 17263 16993
14418 18080 5285
16041 18797 1329
2806 9542 1618
13264 16283 12697
9474 17537 1452
5549 8731 13146
11597 19494 12187
14461 16581 9710
19495 19496 5760
14989 15556 3404
1811 17517 5640
10135 15730 8273
4635 4717 4262
8470 14020 17492
4577 8707 8347
7622 11114 9784
16960 17973 16774
2889 18145 10200
1518 17691 15660
5965 17897 907
5751 11866 9980
3296 19280 3165
18721 18980 9161
12979 13168 3929
18330 18412 12387
13858 18694 6671
14691 17948 4440
14280 16816 9059
8044 19440 1960
3206 10052 9360
17201 18919 1327
14553 18652 436
10437 16362 5937
741 4022 3605
15507 18493 16654
984 7967 12855
13741 16374 18405
15324 18441 18770
13466 18770 17261
15999 19030 9254
666 2027 12656
1771 12597 10921
7297 16337 9306
7551 13756 7846
13249 14169 6591
14824 19495 6157
14552 18155 14381
18000 19305 15464
2260 8570 17221
14386 16146 14488
9904 10438 7207
8884 15098 9496
4358 10511 11465
374 1334 11462
9998 13474 4298
17275 18769 19490
4436 17073 15593
10863 14454 11184
1101 10857 15323
11591 16978 4216
16480 18500 15077
794 5733 19102
11770 16582 5977
2606 10192 17602
15638 15883 17937
13158 13661 82
1130 11169 13145
8623 13567 3723
14695 17151 6016
9200 13004 4422
3906 4140 16245
15849 16707 7738
7231 11204 5273
3206 9934 10727
1609 13016 17318
9680 11865 5431
9825 17137 13385
2251 14671 5850
16156 17318 6059
4304 16063 1808
1987 14871 4608
12537 17974 13961
11517 17407 16359
2874 8300 4574
7708 10657 18285
3697 13879 17006
18394 18604 5695
16142 18847 18474
13927 16970 12286
2297 7178 10707
15219 15682 3140
649 11994 14282
16308 17080 12170
10462 14318 5114
18821 19365 9494
8276 17828 921
2560 17174 8013
2597 3991 13766
13063 15698 11636
3674 19192 10571
3491 8277 14561
5961 15004 5607
1603 13325 10235
7883 14729 4977
5264 16102 7557
13101 16046 15414
1704 10104 15174
15557 16227 13509
15835 17686 15850
4525 15208 13547
1750 2774 17350
3091 7730 2503
6937 8992 5967
3739 17605 11473
8515 17837 17572
12672 14835 16482
7659 8341 1102
15274 18945 17279
7934 18596 1832
11048 11410 406
13792 18149 16029
1964 7267 16347
16983 19107 1421
15976 17560 15705
19426 19488 15879
5052 15011 11416
973 12549 2799
16448 19053 18359
5789 19068 12503
4096 15893 5835
2235 14954 10961
17395 18151 5536
7973 10785 13315
16374 17287 5859
18021 18803 16527
6759 18080 14636
10971 16667 12250
1702 14575 7759
17525 18751 17478
11652 18090 4222
12136 18766 19382
11878 18282 15216
13393 15754 3133
10464 16076 12682
2415 17285 14325
17758 18673 14927
8390 9904 7420
12893 15425 6203
3229 4077 1928
11586 15914 4162
18374 18450 9935
1311 2067 8678
17204 17213 18484
11893 13158 16909
12287 12748 9144
273 9802 2337
9615 12003 9037
11377 18933 8638
14894 14984 5521
13934 16896 13751
4418 11876 16273
11529 19253 11201
15628 19025 15689
783 13596 16330
16822 17373 11456
2854 10199 18618
5994 6856 17484
14747 15835 2696
18427 19243 9281
10903 17305 14574
11292 16893 11283
6989 16947 15710
11516 13226 17918
5923 7569 8230
18293 18496 9248
1865 8471 16584
4588 15957 9100
17433 17547 7794
6846 17247 7151
9897 19165 15181
18166 18501 11709
10373 13528 10975
10871 18318 2814
2085 5558 16534
17393 17895 909
12872 15244 1134
6936 16350 2678
1277 9747 17165
1815 15901 11804
9730 16729 6419
9783 12220 11167
4785 8843 14821
4950 8603 9827
16726 19024 1774
985 1079 1518
13738 17430 14715
18966 19169 5217
12777 15539 18426
5638 8604 9016
14690 16476 16553
5365 11391 11922
16025 19317 5663
14740 16721 18978
7465 18026 10397
14685 16298 8692
14490 17920 15582
1323 15418 12772
6344 8794 11234
4462 16863 9858
17589 18681 1516
983 17831 14500
17616 18303 11230
7913 9880 1245
14776 17898 14588
15060 17507 15949
5422 10410 9903
2536 11369 16063
12472 13027 16825
142 15583 11138
17142 18427 2268
14227 15752 13322
4048 4216 6830
4860 17464 13731
44 10010 18
18589 18954 16572
13551 18407 9848
959 19149 1939
11944 13765 10030
6620 13260 19103
8200 13075 14925
14834 16234 9469
17091 18062 11244
16826 17384 12854
13816 15378 7764
16357 16812 4967
14899 19360 1812
16882 19395 8737
15486 17497 2078
15612 18105 13697
5965 12359 7629
12714 15612 10689
2706 7514 19439
14340 16458 18627
9041 15474 13945
8288 14694 4762
18864 19185 12794
9644 10684 15124
16063 16756 16969
6601 16731 2949
5828 10269 2877
5883 7986 3188
7078 9874 15188
1825 11265 5285
97 17179 10674
4978 11665 2054
557 6175 5029
5751 15763 1207
4711 12295 12048
12923 17582 10007
11242 13712 2946
9558 14991 18242
7315 14117 13354
18420 18944 14722
14241 19166 4551
8777 19148 8233
14944 17726 1120
3495 4164 11685
15949 16509 4692
11050 18341 14564
19294 19322 12342
5392 8375 18111
15607 17470 14504
5590 9552 11609
972 16817 17508
4750 13357 8685
17754 18029 17045
18989 19376 10951
6054 6369 12990
7653 19250 8568
439 2887 17255
878 5231 17084
6953 7536 8253
15799 19162 19455
10431 18395 11621
12550 14239 6146
7921 19153 7118
12675 19175 6697
13690 17323 6603
13304 18322 17814
7330 8850 9056
6120 10437 3340
11868 14992 5842
5783 7095 13996
8378 9671 12143
10101 11454 13747
11181 15118 8650
5151 7316 15156
16038 16980 16954
1968 17741 16417
5397 14180 2469
2839 11705 18007
9069 17679 2351
11048 15548 13512
16737 17272 3163
9040 10976 1174
10473 19102 10710
12403 15588 3201
5181 12947 11243
11938 17483 11221
14277 17180 9497
17245 19220 15333
15636 18833 7004
5471 15785 2314
4722 6808 17537
10130 12702 361
11170 19263 11219
11514 13870 6320
6263 15276 496
17120 18912 7354
443 13333 16045
14621 15252 12431
13546 17551 12217
7926 14575 8498
6451 15536 4623
8225 8760 16684
11111 13573 233
3438 17669 7965
11182 14239 12669
8160 17792 17890
10588 14484 5
1336 16420 17448
16831 18252 7483
13075 19484 10043
4993 13992 10502
4630 6941 3975
13555 16111 10905
6200 15522 17038
15867 18230 9218
19226 19348 16769
12539 16335 16552
13754 14928 11890
13504 19324 15504
9489 16135 7571
10706 16820 2687
7452 7904 13444
15903 15918 6115
15292 16811 10520
7317 8973 4386
1349 14686 16393
2206 18515 381
15316 15485 13320
18237 18303 7141
11644 14510 6849
18743 18746 13250
14589 19379 16386
8669 16764 195
2031 13446 3285
8190 10600 2705
7083 11755 11605
19144 19340 13268
18628 19036 13615
12261 13765 7207
9468 13952 15584
579 9625 8485
10919 13221 114
13978 16769 1214
9042 13618 18021
5466 5623 7724
4720 6696 9838
11938 12532 14993
1997 8690 8100
11513 18050 15485
12571 17098 15433
13713 19148 17346
4215 13910 17898
14146 18420 16677
18247 19106 5192
11886 14184 11396
11989 18073 663
2599 8278 7838
8964 10478 12263
18852 19348 12332
13625 16916 736
5118 6946 10181
17715 19466 6842
4194 13633 18560
18271 18327 4798
9476 14569 15298
553 15569 2704
12142 12461 14125
9471 11318 491
13476 15190 5538
17645 19127 18733
10937 15885 2842
282 1109 14055
11017 11556 11707
14164 14238 2899
12147 13726 11900
15721 18282 7000
7501 15156 17236
11908 17410 2250
4728 8752 7808
4008 10927 6720
9139 10903 17445
17447 17787 9876
8301 14120 14303
10725 11627 1691
8254 9910 2227
14437 18071 4683
8163 14496 10061
12770 12813 16265
2195 3254 5061
8439 12938 10494
14873 17686 12621
3119 15502 8411
17244 17357 11795
16430 18267 1373
10076 13073 4201
11212 18287 13172
7830 18838 10409
374 9508 8244
8980 11008 5329
7925 14467 4317
11273 16100 7699
14703 18608 9025
8185 17567 1550
17512 18494 2025
11028 13846 3471
7443 12886 9362
3774 9482 13128
17334 18275 3014
3093 17861 9950
9274 17584 15524
10692 17168 4228
13634 15168 8990
13529 14802 13568
14536 17713 8757
7145 13601 7993
5487 18935 3509
13464 15813 548
903 18592 3691
4639 9267 13022
15808 18507 10663
17201 17759 4154
19359 19398 7309
8561 16977 11082
7161 17783 6770
8128 9208 5168
5142 14772 12310
15979 17095 5324
12253 15749 106
14128 17164 29
16267 17775 2264
9300 13573 12965
595 4477 8454
14941 18957 13458
18066 18986 17313
6360 9489 10318
4796 7505 14230
15854 18919 11078
17254 17975 15372
4214 12996 19416
12653 18939 15853
7461 15148 4506
7474 11119 16628
13289 16454 6003
18981 19323 6430
16671 18672 14714
1134 4870 10941
16108 17515 17674
5517 8651 6358
1168 11536 2872
4840 18416 843
13888 17447 7281
15527 16361 11631
10808 19072 6705
11090 13719 15001
16408 16977 16501
2524 8211 17669
268 18380 5883
11839 17377 2753
18359 18583 3696
15614 18379 8040
11535 17253 3022
1603 3666 4656
3812 13989 17891
4692 9419 7781
12198 17627 14081
1685 9246 8681
13182 16012 18056
8040 18830 2263
7666 13277 5943
5383 8774 7147
17933 18608 5833
17564 19443 16331
11167 16091 17708
11946 14071 1665
18007 18161 10925
6005 6320 13620
17061 19175 18752
9267 19101 8262
12818 16545 19377
19453 19472 10423
10879 11781 603
54 10185 9753
7872 17412 7177
5919 19457 11152
10288 10398 3048
9622 12958 3508
1170 15568 15472
13581 19134 2263
6413 15480 16352
4601 9778 15449
15684 16699 3332
18426 18714 18822
17900 18017 12421
19336 19425 8166
13488 16628 24
10540 16068 3378
1700 9045 15657
15736 17306 7320
8546 11962 18483
2621 7001 2423
18786 18926 11191
12682 15606 16119
3205 16991 11319
6644 10256 5363
16910 17030 13713
10432 15921 13036
16714 17979 13696
8937 18858 3686
15897 17819 18371
6875 9984 17572
19382 19444 8170
9818 15860 13844
16562 18456 832
3193 15583 11027
5585 11919 11726
473 7344 955
19324 19401 9593
13822 18641 5077
16231 17623 5228
11047 17849 10748
12736 16784 9644
12933 17802 13180
1411 1900 2209
16102 18682 13797
13359 15544 18487
11662 17298 11298
107 3365 16530
954 8608 7885
12563 16485 6288
18584 18787 8300
25 5540 6785
12662 19235 15993
19 10486 17115
11504 19223 2452
16270 17039 11315
5885 10798 13396
2731 7054 1101
2083 11593 7622
3584 19284 3022
17445 18006 1028
11391 18570 2485
1576 10901 12164
10539 18789 7938
4166 19111 7835
2804 4346 2409
8166 8745 6866
3980 7421 16071
3710 16258 17909
3460 11578 13255
15491 16408 13529
17766 18523 13122
7263 17730 8931
1514 14255 17871
14423 16823 9897
7946 11579 6991
203 10252 16798
12263 13729 18090
1349 3922 714
12682 16239 13707
15778 17470 8429
6296 6707 15828
3136 16095 11968
4462 12506 2360
9518 18772 6995
673 4236 3993
4773 12395 10819
10042 13182 18422
16498 16506 4738
6639 7811 5189
2962 18548 15801
12976 14462 3755
13683 14415 4614
16234 18608 6919
2649 12178 5169
13038 18666 14116
4253 7044 15549
11163 11603 8902
7104 9156 1013
19431 19465 12535
4012 5299 17575
9553 15642 1975
6478 7230 14828
1484 4935 7707
19223 19371 15975
8878 14075 4195
1662 12994 15013
11699 14061 17297
17124 17636 12422
10175 16369 7397
1239 11157 17580
2963 7124 16713
6756 19313 12459
147 9626 19248
1310 18437 1331
6711 11684 435
17436 17542 1714
19185 19350 2568
3148 11153 7083
6441 14070 9883
11895 18403 14846
15804 16237 11503
3277 17064 7136
16499 19283 14010
18508 18769 1645
11613 19417 6177
8868 12630 925
830 11810 5623
14254 15026 1771
16157 18784 1102
9258 12774 2557
1939 2032 15630
4909 12790 3138
6900 9455 18742
3785 17980 12509
6141 8488 13488
5274 7948 11697
12256 18169 14220
17018 17697 12924
12003 14753 1282
4662 17083 13593
14609 17392 18905
9457 11744 16096
18783 18936 18351
13514 15519 14037
6514 12291 18693
4724 10077 8168
19411 19479 19203
15772 19263 10189
2062 14363 7448
12232 14889 15885
5780 15246 1772
4512 7453 11070
9641 18680 6733
8341 13852 17182
698 8656 15654
9414 17320 18545
9282 16227 6270
4966 9981 17096
12868 14128 7878
19316 19447 362
13030 16576 9147
15855 17242 11069
14422 17669 14483
8062 8876 9402
15419 16245 7083
7363 13532 7020
7098 14942 7115
15769 16297 2543
1514 16224 810
14639 14700 15050
13243 14454 14925
2923 9226 3970
233 921 4461
33 3135 12629
8092 9323 6098
18913 19085 5649
1838 12855 18442
14868 18223 2724
19422 19428 3941
7630 11989 8318
7626 8071 18107
3941 4095 10747
10700 17724 6049
8314 18409 14597
12565 17548 1271
2010 12845 18891
10013 17943 5572
2912 3791 3949
8711 10899 7719
3538 5336 3393
3950 7853 5900
2612 11718 11499
2868 5333 11940
2123 9279 17647
13996 16958 9410
18779 19031 4368
9274 16099 3155
7049 11719 9115
8103 11622 2833
7053 16907 1596
9650 13476 13253
8402 13148 18820
41 4016 12071
16842 18341 19469
13581 13602 11618
13652 16451 6605
9416 14243 7778
8614 16935 18116
17335 18107 13056
6983 11225 1814
15702 18022 13357
19275 19294 13187
1476 5228 13105
13235 14621 7977
6973 10921 12349
12993 16890 14949
18933 19143 10948
11544 16204 13382
17458 19214 5701
15524 15975 2252
15689 17200 2820
16447 16712 204
13957 16985 3473
12633 19291 11200
18146 18727 8241
11206 18693 4398
9750 14564 12947
14413 18615 1634
11194 11472 18936
5761 13545 15487
18446 19345 12461
6167 14022 14437
14020 15274 8882
4119 19345 9566
17048 18075 18742
8275 19203 7515
12357 14467 6348
15603 16963 4536
5569 19386 8662
12675 14330 16998
15664 17464 12771
14750 16745 2568
5313 13166 2217
10956 17653 1618
19174 19256 8022
14585 16222 6957
14634 18981 9891
7119 17417 17213
11840 15079 14112
14284 16073 16458
19330 19398 634
11068 15430 13127
14869 14905 8595
12835 16274 16194
18252 18986 16722
17826 17981 16103
5956 7548 14715
5719 13899 3930
8941 17074 17728
18716 19454 179
5142 13651 8674
17729 18978 7913
12822 18212 10233
12137 18125 14984
8189 14004 11036
9503 9566 8074
13189 16841 18957
14611 16033 19488
1847 12351 13280
7536 14007 13140
10737 17006 12778
6927 8461 7816
9284 13811 7586
7910 8506 4641
5687 5702 3392
17768 18922 1643
3644 3957 2793
2639 7596 2635
12734 12912 19405
7112 17608 10404
1012 5370 1429
5346 16723 1125
9892 15927 14422
6379 13172 18109
2174 15789 8229
2139 3161 5210
11211 15600 234
16433 18050 7104
7480 7741 465
17028 19392 9411
11976 17198 3788
9631 18255 5646
6870 8666 7795
16501 17247 18189
13150 14123 5473
5315 5633 4650
4143 5358 6765
8375 16809 15140
2412 7251 13474
14311 14376 16536
5641 11773 17009
19006 19338 1858
4935 14092 14696
18014 18792 7338
11266 19347 6341
5291 12845 14577
7129 13093 12039
15544 16363 12696
2986 15692 9978
10034 13279 3594
17779 19317 18413
13713 14609 4518
9949 13296 10902
5219 7752 3065
5160 16436 5155
19252 19468 13550
19373 19386 17975
12362 15225 9741
9174 13760 15649
6839 15985 16132
15998 17563 9083
18489 19497 8902
1110 10851 7235
6677 6885 12518
9721 10210 18345
8182 13307 11884
18914 19243 2328
14047 18270 1481
16954 18163 4034
16399 19011 12791
8103 16540 17241
570 11743 7226
1922 13875 613
8811 15738 16274
10221 15411 9855
10695 13506 18786
16509 19220 1381
18540 18735 3964
5151 18042 3259
4959 17970 10168
13580 14232 6871
8026 9532 1730
16017 16162 16945
7013 8151 4470
19409 19455 14585
10358 16132 19091
15879 17963 9850
8891 16914 17893
4466 15364 17173
3211 6848 990
10418 18765 11292
10234 10606 7282
6656 16805 6043
19290 19467 8429
4291 10144 10005
9869 16562 2237
12597 19155 18176
7625 14364 314
14275 16648 7033
7300 8644 1432
3024 10251 8320
17970 19140 8576
10848 16925 18380
23 4790 16716
10416 12622 2732
11911 12668 15038
12748 16224 5868
2288 10114 7004
13317 13956 12142
10010 11965 2434
1192 13326 3181
10113 17724 11295
15134 16542 5235
3321 18340 7399
10806 18294 9742
4547 15653 16464
13271 15097 12314
15229 19070 566
17844 18360 7762
7128 15712 4994
19339 19368 16051
10304 10881 2578
17208 17702 1486
7646 19226 18265
7714 15754 8879
9848 17534 15495
2455 17623 15016
3281 8131 16472
15662 19269 6076
15425 18199 16835
6700 11924 4121
18241 19168 17547
2903 6749 15486
18042 18989 7503
15242 17838 4929
4194 13151 4693
843 14333 7525
4844 6589 7905
16618 17170 4520
17827 17916 15586
12942 13754 10374
16468 18432 12728
9496 9922 10597
7059 12560 7915
9751 14824 1017
17671 18467 2353
646 1067 4978
5964 8227 14080
6610 8317 15197
14483 16920 9134
7354 15448 1285
5501 6326 10987
12008 14463 3028
10621 14191 4496
19213 19432 9584
5015 6019 19396
14375 18548 7626
13226 16571 15647
19157 19381 12872
10605 16246 2493
11624 16358 4213
6260 10529 1981
5024 15502 16947
18455 18616 18789
9402 14847 17947
8631 13351 9165
3560 18984 464
804 12408 708
16362 17671 4739
15459 16107 13936
755 1074 16741
10418 12344 5800
9517 9607 11923
17888 18791 11716
8487 8811 17353
8477 11439 1763
18244 19230 7247
11659 16691 251
12647 18420 5165
13467 16222 10984
11772 14867 9633
8147 9197 14687
11933 14116 6822
14632 15118 1497
10954 15010 8459
16994 18679 10789
6072 8755 6277
12528 17831 2240
15780 19113 5214
16752 19204 6056
3370 14403 8453
13065 17734 6585
2533 3766 18053
18194 19324 3594
5760 15084 17828
8216 8912 14920
9476 15358 11886
7308 12696 8740
1442 10200 1688
3612 3673 5554
14947 18499 1034
10930 15468 1909
16248 16551 18633
15794 18793 16301
3701 10672 14242
3890 9867 4416
16109 18175 11173
5095 13670 11825
10066 10969 3156
6959 12762 15534
11346 18984 2086
1971 3833 13271
2538 3022 16331
17549 18096 3632
15553 19470 11134
14284 18237 2470
8700 11213 9239
4935 16703 9775
11284 17053 4320
3962 18974 8068
227 13370 9765
12339 18219 17043
12512 13157 19188
18958 19138 7313
2427 7495 12085
10398 12301 13839
4582 5659 824
10772 14293 10364
1836 13136 15161
14204 15780 18907
3262 11220 409
16311 16414 2626
4438 10810 4879
17196 17832 8807
10207 11267 4873
5838 17687 18120
1328 12736 14294
7714 13111 4798
12134 12637 17059
4853 9641 13086
17556 18856 11339
8550 15084 13136
19362 19480 4
11802 12288 2250
6711 10587 17881
16693 18089 9522
2008 9046 8028
6843 11314 10297
8722 15118 68
6137 6283 12228
5611 12191 6733
9781 12812 8019
15068 18208 11993
1433 18709 3927
14997 18354 8993
9462 10040 9455
15646 17098 3231
3035 9302 2960
13010 18001 18427
18292 18361 2122
10527 17193 3260
11187 18534 7681
2540 10228 4884
18247 19444 12817
18772 19240 7056
17709 17760 9071
2556 4792 10180
6027 9646 6412
5422 10138 3740
2859 17558 7183
6536 19302 9424
16026 18540 6423
3442 12183 10851
15341 18108 13960
16914 18940 18109
18839 19020 11617
14298 15266 2758
8638 16994 11427
7 15046 3987
2090 4471 11383
4697 5120 371
1734 19036 3372
17270 17366 5690
9732 12806 1875
6819 10554 8288
3219 14080 13840
12834 16139 10538
16381 18519 13408
5513 9934 18948
6197 9067 2202
10916 18606 197
367 10085 9417
18483 18829 2895
435 7076 12799
14706 18553 15537
17895 18860 14244
13113 14761 3413
2163 15780 9654
2295 14309 13063
19341 19452 9329
4193 8403 7187
7057 13677 18643
1364 1793 16172
11689 12162 18835
11896 12363 3865
18307 19027 11108
18314 18522 11581
8442 17548 2834
9385 17899 3852
12379 18609 3025
17822 18602 7271
8886 15109 7695
11492 15124 16926
3781 4005 10341
17267 18711 1603
10056 16716 6952
2080 11303 6068
11897 15163 6714
18101 18358 8255
11515 19137 17303
8909 14457 3139
9624 10677 16443
3734 13490 12765
13790 18791 7601
726 5470 12956
14533 15089 3088
15541 17128 107
2799 18530 1576
18812 18923 5214
2951 3379 11467
9931 17000 12428
10504 14339 4497
1183 6673 1193
2840 5134 8696
17871 19358 7785
14460 18086 12017
8184 19117 4435
5602 17304 3549
11167 17108 6883
19030 19209 3499
12168 16386 10687
12827 12866 17376
3337 17522 18519
4979 11983 14400
3599 5700 8290
14009 18290 12223
13977 16370 12854
3230 18057 15278
6111 15973 7107
15748 17751 4775
11717 15072 510
2357 11585 226
16130 18161 7483
15177 16024 12077
17529 18028 12584
11339 17582 15125
11484 11661 11420
11454 14869 539
18983 19256 909
18659 19210 1309
4519 15186 10778
12195 12308 1282
16924 18456 4054
12110 16152 228
6483 8739 10569
11456 15308 1087
14754 18170 18948
18849 19434 15662
17683 18333 17196
16326 18121 6743
4077 7119 17509
11951 12544 14251
9776 11285 16769
11354 15737 4959
5437 16272 8098
9861 11305 16118
2754 2759 2873
11669 19458 10196
9281 9363 1025
2623 9865 16952
19116 19201 5689
6598 17835 18171
15586 17804 6047
16218 16226 17689
2966 6497 4283
1257 15674 18450
16043 17135 18820
13817 14838 4945
6732 9936 11140
2167 16459 2232
18809 19285 987
12413 15475 19121
12722 18808 18088
947 2156 503
4559 11263 2363
12215 13487 18122
6063 19123 10018
14658 15347 4029
17458 18856 5925
6396 7028 12283
10968 16211 964
9721 18350 14070
743 3050 18572
2756 3411 9295
3364 16268 4478
13951 19434 3527
8070 11494 19444
17865 19052 3389
12605 18050 17410
12450 15904 17337
7420 14371 16135
11371 17622 8602
17062 17339 17804
4117 15829 18484
19101 19283 2251
4635 14131 1438
12130 13586 10279
15502 17046 425
8203 16535 10777
4108 5438 9019
11361 17967 1571
11083 12295 12139
7511 8005 3432
11214 15091 5344
16298 18953 9139
6693 14239 13080
15055 18328 16723
17680 18543 12658
10441 19356 16603
738 8137 9142
4169 4545 13630
17942 18896 14123
10726 17454 12791
4203 9939 14190
19122 19247 17441
3824 14960 2698
2728 12675 19470
16924 17163 13335
7856 11105 3288
17429 18591 13293
2209 5062 16282
13102 15853 3651
4409 8906 1225
19178 19491 2995
7572 14238 4483
5749 6626 6589
15613 16298 3779
823 16934 448
9224 10055 11934
7367 11565 15336
10460 15699 9470
3732 9022 3751
4274 14969 1537
12739 17985 6442
16832 17988 2089
8404 11495 8544
6076 10392 6499
978 6233 15305
6908 19354 3344
73 6728 13403
1151 16934 10645
9328 12594 272
6620 13679 6566
5585 14605 6745
5693 19374 18429
4818 11584 13567
14730 15348 468
19305 19323 3702
476 8835 15687
5365 18019 5625
14902 15378 13879
7492 8653 2928
3396 14154 16096
47 14892 17485
12319 13048 2396
6813 15778 6844
18937 19376 12797
12697 18242 724
16885 17551 9443
2736 18664 8058
9536 13161 11834
18411 18639 11783
11161 14356 11489
5490 17266 1111
624 632 19277
11752 18668 13290
5360 17304 8978
12704 17095 13931
6873 17062 10930
10007 18335 2111
13174 15561 10303
10638 12764 9385
137 16910 10691
13005 17124 10275
8092 13423 13209
4514 5158 2428
6271 16305 7337
17436 18030 7366
17430 18072 14525
12171 16580 4547
17370 17985 4007
8212 10461 18805
11766 16152 7365
10097 19435 8217
15593 17760 3234
7803 12307 437
13071 16116 1104
8107 10252 14224
7730 12483 5057
6102 15280 13505
6164 8080 15639
1844 10581 6419
5929 16907 11719
14071 16406 1075
7131 15814 17755
11931 15647 837
1996 4732 3943
12271 16977 13545
5286 10853 2128
10191 12673 6487
18512 19230 18109
6216 11878 6732
6737 19339 1637
15916 16241 17202
18083 18464 17501
18067 18549 2778
6285 14865 14995
7714 18829 5641
17702 18424 6120
5292 5680 4725
715 1275 3968
2605 10948 16667
3175 16413 18232
10737 13801 19246
10618 14428 433
2220 18337 4595
3637 5268 16373
1773 19121 14442
18674 18987 15909
7358 8196 6039
1078 19399 11625
3935 6503 6558
13850 15075 6863
10574 17732 14736
19351 19404 15508
6558 17249 18673
9185 11665 3874
7518 8196 14271
4248 7072 11835
18911 19205 1426
3884 4417 10979
17200 18975 2705
3333 10230 9737
11348 16076 5420
17726 19341 14608
18618 19219 1138
13370 16687 3850
18154 19289 10569
10296 11250 18220
11375 19191 10287
10173 10641 6623
8750 12215 502
1614 9027 10256
5002 15807 13724
14959 19051 11569
12738 17249 13650
4064 9789 2840
6084 18832 18095
162 14491 18646
13052 18743 13444
15591 18703 11336
2271 15326 14786
12507 13279 4910
5241 11225 6166
3952 9127 5109
17693 18963 7205
11546 17426 2994
11790 12246 319
3885 5941 13010
5634 11904 10686
7272 11647 17534
17564 18894 9451
6590 16101 18881
13000 16237 14702
2035 5258 11208
9509 14978 13597
17531 19102 3313
19487 19494 9361
12037 18503 1984
4912 11447 2253
10520 12853 5527
15913 16924 10592
19066 19187 11763
399 5277 16202
10471 14341 14547
305 1319 15361
5769 15604 7065
10359 18557 17585
17296 18334 16108
4216 9472 1478
13136 18501 2230
18799 18926 13808
1698 12586 13430
9713 18075 14668
3010 10382 9618
13593 14971 2489
13336 17845 16118
11496 17171 9399
8673 14703 11121
4513 14428 6120
17117 17408 2568
11145 18080 11757
11933 12013 5217
15888 17139 1877
1761 15044 13046
9085 15523 60
11243 18059 4018
6793 10855 1565
18843 18907 3250
9592 12466 19093
6495 7067 13531
12365 15802 2155
2665 15575 5406
10101 18475 6508
10260 15528 1527
17496 18027 19103
17843 17845 3195
14137 15349 19249
18212 19098 9123
10462 12563 19129
904 8257 13201
8770 12219 4401
653 10112 18046
5396 10925 5119
2259 6125 4351
15197 17781 13812
5825 15580 9084
12300 15439 8176
7581 16939 9342
5247 17134 1194
17076 18651 9904
11407 14900 10671
6841 7537 12088
12956 12974 8399
9856 15885 18239
11384 18321 4065
4654 9951 10812
19194 19352 10983
10050 15956 15539
4572 15948 17196
8288 11499 712
3911 15506 3398
18504 18518 10683
15595 18036 19370
14942 18778 15068
12211 12769 9323
380 9076 14357
12860 16433 7452
4673 6914 8378
6352 17089 409
16427 17753 13301
16932 17579 15085
15050 19118 4584
2493 2557 12946
17644 17657 6296
4998 8066 18476
9128 11419 6419
6289 15170 13249
10724 12188 2251
4763 14108 8761
8371 9943 15458
18209 19448 13865
12133 19116 13818
9734 15066 11749
18704 18997 7978
7965 10803 6017
8832 16162 9863
728 2965 9769
164 5151 6066
2075 14562 2067
9639 10153 13594
9077 14058 8057
267 11725 9125
4082 17718 4308
11212 19477 14172
11072 17769 18183
14174 17944 3127
8711 11379 13601
18887 18944 13498
12679 14304 10629
7228 17209 3967
18373 18607 19291
11939 13871 11680
17021 17032 2551
8425 11434 6291
7520 14747 10638
14129 15522 1145
12634 14929 684
16503 18823 724
11578 16946 12204
380 12275 9550
15733 19029 17151
16111 18651 6115
10006 18391 5854
5628 18531 9706
14088 18080 49
9024 17969 7201
9426 9640 5164
11491 11678 7494
16222 17189 4547
12114 18332 13639
18748 19036 795
15604 19136 14040
15790 19463 3633
7905 10652 16247
13312 17984 16245
16221 16477 11918
17556 18425 7998
18124 18514 7344
18426 19381 4408
10118 12000 708
15083 18391 10312
11043 19495 6203
3606 6275 9715
9 13848 13683
13220 13781 10524
10840 15400 9840
12366 19151 13024
15430 16839 18298
1956 14375 8538
18156 19308 14370
1705 14630 9872
17151 18755 1386
12628 15721 8272
9166 16365 18583
16056 18664 4448
18451 18591 17816
8118 8166 10784
13564 15314 2486
16077 18083 6198
18360 18401 11844
8901 10735 16747
17801 18024 9358
5872 12437 16925
6891 11607 1696
13830 17357 17841
17644 17734 9856
12262 18441 18738
472 3735 9582
11705 18557 17900
19139 19171 10558
18078 18802 8046
3046 5231 379
15210 18644 18349
1120 7276 15067
18552 19395 5626
7615 12486 10382
17483 18040 9160
10240 12497 10075
4572 17123 16218
6804 19398 15474
11047 19440 6949
915 16344 5574
12570 15312 17179
11060 13568 15810
4351 18117 13512
14744 16860 6069
6783 16300 18753
4963 10369 17644
6728 10023 14219
4330 18940 2054
17390 19421 4201
19384 19387 11728
13815 17440 1647
17941 18775 6003
17178 18304 4092
17022 17914 1543
3851 11002 12106
3497 15151 7657
1339 12727 16442
9838 18800 14207
6911 13087 1418
1246 10051 8728
1354 16561 16756
3513 8077 12455
1997 8533 15787
1307 15120 15633
2575 12102 14369
14679 17794 6594
12927 15761 15208
13160 13499 2049
1078 13288 17421
12842 13331 15832
2650 3284 19170
6451 9770 12466
7729 13157 4104
16552 18209 11817
8062 19142 3253
18678 19051 677
138 4168 7289
10276 18168 1807
6081 19006 7965
1778 3940 19307
3789 16169 9352
339 5590 18201
9521 14106 9224
4781 16560 2632
5209 17376 11671
17659 18745 13972
8717 19159 1537
17509 17639 11135
7641 8141 296
5617 18114 8935
2959 5774 5631
15036 16659 4219
16516 19033 18235
14548 17356 6478
10375 14510 1469
10507 16913 11605
16158 17567 13252
10189 11709 19360
6412 11653 4806
1474 18319 12469
18254 18767 3422
9084 12333 11212
3248 8052 5046
12186 19059 9279
7390 12771 963
14986 17533 11623
7140 10803 3377
1971 13414 3930
16666 19047 10814
15741 18645 314
14857 18409 2798
15602 16767 2802
810 4924 13071
2935 7001 11024
6656 9476 5982
14819 14969 6870
1450 16474 11141
19240 19354 3639
19351 19455 5995
12713 17569 2665
17070 19299 8944
8234 19500 3978
3655 4598 14360
17995 18867 18196
13832 17422 6934
2285 14189 15324
16515 19183 12205
11829 16803 3970
11412 14350 12417
4726 17507 18321
1457 1912 6785
6096 6238 9894
5063 18934 10715
507 9108 13341
3511 19124 12065
4412 11601 5251
419 12200 7085
3135 13294 15411
1612 11034 11872
17082 19277 9000
12238 15593 19493
12056 18022 16657
15996 16575 18424
16048 17831 3180
12938 18981 15535
7345 17195 12563
108 5529 15668
8274 16577 18119
10866 11242 1099
2987 11795 4636
18941 19170 8523
17641 17730 5791
4708 5055 7299
5494 12010 10488
10674 15387 16710
17288 17652 3689
8871 18714 6827
15540 18968 11454
13415 17871 6312
8151 18010 7934
9114 12501 18151
6381 7629 14202
8600 17661 579
1800 7610 14669
274 2423 5608
12504 18480 17346
583 8992 6063
13087 14172 4531
11636 18093 896
17800 19131 3493
18917 18999 16843
11760 18697 5198
12779 18368 13361
4094 13228 15383
3032 3698 7733
17827 19254 6740
18582 18660 17204
12797 12834 13079
7917 16149 14001
3246 4176 10780
1818 17645 8360
15551 19160 2147
11652 15574 3684
9702 17978 8889
9713 12085 9534
8616 18398 16951
9886 15543 6239
8586 16555 3872
9681 17965 7623
456 18204 1222
1024 7780 13840
2307 17494 7262
4261 18445 16043
16757 18587 6558
2973 6706 10426
13349 15702 5844
8594 15076 8
7267 13893 4021
17039 18135 17085
1302 13245 16329
9348 10158 13062
3355 10892 7422
4715 17473 14696
19006 19399 10249
11274 18872 1912
6607 9490 13290
17862 18222 14085
3253 8731 10298
15744 19262 17692
2117 16967 8200
7054 11125 5466
15856 15887 6901
16512 19060 13250
14513 16013 14978
6326 6765 16552
19468 19492 18132
10431 12698 17570
1898 16094 7175
6515 18843 6723
13694 16946 15555
7010 12961 15537
11671 18101 15109
13466 15462 839
3558 12204 5967
2275 12850 11374
5049 10622 2627
16654 16664 5057
19001 19041 4788
816 7152 13246
9525 11635 20
6298 10701 11019
15806 17305 17069
13145 18526 15851
18505 18656 18438
2426 17258 7478
18220 19256 9742
14714 15421 14750
662 2111 10267
19185 19421 19183
15497 15876 11680
11497 18891 2127
4069 14843 8769
2017 9675 16013
7670 16925 17869
17332 19226 9695
6134 15613 5599
10868 15513 16596
825 13318 15676
4102 12557 10369
3843 11971 4289
7965 14194 18898
8128 9493 8543
3989 5217 2318
1365 1985 10037
2260 12482 13461
4602 7740 9399
7853 10011 16345
19078 19328 4674
18885 19250 9838
6507 12104 17015
5254 12758 4192
12812 15911 16119
15093 19229 10026
11219 16655 18769
17471 19104 682
17208 18057 10351
4969 14712 15082
890 9716 2785
5318 6960 17142
12147 18355 3283
4508 18478 17831
16044 19282 6091
3324 10024 18015
1709 18975 11752
4091 17482 12750
12587 17007 9640
12253 13916 15096
19273 19483 11143
1431 14608 1747
11929 13562 18234
19190 19397 19350
1089 14899 6970
5002 18339 349
1807 11794 2672
11165 11597 11761
2481 2669 1831
594 1788 11653
9985 14132 4871
11133 11448 12751
1320 10490 11845
13602 19084 4096
19027 19441 11414
1496 8478 7285
12429 19113 2784
12430 14963 9765
18168 18619 14698
17156 19116 9844
9417 18221 11818
12859 17087 8886
16686 18326 19148
8186 14149 15029
14440 19160 8972
3924 17852 17741
6470 13847 10288
11502 11681 15669
11643 18090 10837
10795 15341 15353
1800 13544 11682
12440 15918 6654
14075 18119 17879
12000 18933 19281
2795 6161 14615
10789 17688 5724
3776 9480 11980
18630 19137 9515
6871 7948 3339
16700 18387 10285
1547 1632 13175
13764 14894 5296
18968 19290 12502
14980 19066 17070
14697 18785 4107
16375 18334 16397
4006 7083 5826
1580 4750 5613
4439 5942 13462
10969 18744 18027
8022 9579 8157
13696 18438 18988
13237 15615 15177
2493 2679 16825
6032 11410 19380
18305 18505 8653
12618 15270 1785
15304 18802 7279
9325 11212 16182
17039 17639 10004
2075 6870 8868
13028 19378 11463
19400 19415 13102
17906 18020 3643
6630 10720 3324
5969 16198 4714
14594 16002 6145
10225 11636 11071
8964 13216 16403
18324 18447 3418
8058 15721 10820
11207 16009 18565
16405 16500 2000
11848 13447 13957
9456 11860 13716
17320 17643 598
2985 5876 1078
13597 14052 17397
10463 15273 16623
336 17864 17977
838 3594 6069
8898 15157 2946
18065 19074 148
1757 5815 6302
5269 11255 5813
5504 12804 1884
1806 15808 5390
17598 18143 855
8401 10444 14401
2457 19060 8373
7218 15655 16042
13373 19471 18821
4709 15476 6576
18413 18584 12678
16685 16989 13362
16499 17337 5704
3104 17508 11875
6892 11391 11246
11030 15833 3030
8749 16910 15355
101 15595 1395
3875 17691 3266
6830 10137 8724
9358 11838 18483
18815 19215 13422
12908 14295 18577
19345 19347 13054
873 5556 6446
18068 18276 6600
16168 16633 10994
12832 15155 13256
9242 15216 7840
1543 6013 10698
12465 13547 5435
7330 12748 12925
8689 17152 15000
7119 8160 232
9140 16137 9785
12724 18009 16979
18292 18488 13651
17661 17751 12572
18548 18741 629
384 7039 12575
10937 11404 11519
5509 9823 18268
14707 18510 5984
12562 14912 8958
13738 17626 16086
5657 16020 16032
5906 9970 17652
16322 18505 10558
15630 18916 13846
16042 16765 1490
3637 15723 17499
18841 19050 19460
6636 13400 12487
3248 10350 15604
3878 18968 9312
924 14919 3895
7423 8976 11925
9426 18856 3437
14880 17175 17497
3455 18761 8831
9589 13919 18201
4605 19252 4120
17108 17204 10946
16390 18909 17148
18860 19339 3541
14894 17018 8111
7532 13463 16200
19451 19485 1608
3494 18700 18376
18153 19362 15716
10016 13839 3778
2990 6474 6839
18026 18156 14990
14851 15829 11000
18384 18923 18236
16453 17829 3618
2782 8772 11242
19410 19421 4380
11168 17144 6438
16345 17217 8782
1355 1924 6307
12786 18670 14539
6073 15209 17498
10580 19497 18873
4327 17639 6635
10959 16248 1858
17 13850 793
17119 18561 15014
6269 18751 8367
10106 13280 15445
9554 14238 16561
14800 17348 4187
1561 11425 11733
11969 15823 15721
3185 6023 624
3982 6478 7753
9233 11155 17695
13436 19202 18329
10841 16830 5785
13899 14623 1037
10874 11142 6658
9925 13915 11543
4777 14764 3767
19406 19484 18383
8785 10068 8199
2696 17131 11121
6888 10560 1777
9674 12319 7856
17795 19338 15963
15479 16419 1085
15602 16610 8225
5437 17385 13735
9164 13687 18197
8877 18465 8970
12971 18635 2296
1409 5571 11233
3948 6795 10073
5874 19224 6425
16858 18609 2014
4844 8209 4055
6782 17287 5922
18577 18695 11560
5544 11119 11426
16968 19051 7072
13719 15193 13006
6457 11861 4865
14229 14559 2845
18553 18638 17998
15672 19015 16186
11265 17772 15166
3761 9052 1085
5416 10729 7312
8385 16241 11448
4910 8773 12604
16081 17654 9127
12871 18817 9906
77 7534 18412
15604 16974 15987
3050 6395 9854
17629 18612 8027
2868 4440 5035
1080 16090 11302
13266 14281 3410
12252 14807 9973
15059 15350 17448
4031 15496 15954
14341 19396 18113
11724 15775 16747
11394 13450 15376
15601 18608 19352
10699 19436 18996
18754 19435 14830
11710 18743 4317
8555 8788 11369
18181 18837 612
469 18121 12541
10045 17118 3390
10396 15797 11632
16288 17062 14024
2588 17816 275
16408 17222 9094
15202 17040 17807
10233 18440 11950
5248 10555 9072
8387 19120 585
7779 9013 5013
9411 16432 16127
9017 16981 2816
3799 9750 11275
13747 17297 6405
12128 18044 2448
929 13420 13198
2860 19386 11496
5823 5871 3249
12962 18995 8513
9342 17034 7091
8300 18426 8202
12877 15803 15867
18551 18824 10154
2210 13174 11410
9075 12914 9284
4447 12323 16963
12402 18865 16159
8442 16331 10028
12864 15874 13254
1915 12638 18968
14001 14704 11377
1650 5469 19444
6080 12560 16349
16718 19487 3731
13211 16133 4441
9010 15499 13008
3975 16094 16536
13218 14343 15467
13164 16292 16881
14777 17948 113
6851 18463 893
2207 7074 1678
14768 18802 1296
10242 18293 2907
1658 8917 11867
6477 14779 17208
14273 16693 7620
15018 17850 17099
505 8053 13651
5532 10484 9918
7213 14011 5541
2455 8545 13143
17655 18952 10020
9792 18847 3115
10724 13730 14804
9852 16367 11514
15700 16499 12169
3704 12342 17951
13510 13806 19229
17763 18400 6512
15956 17007 17520
7852 14080 6596
11867 13870 1267
10889 11530 2526
12621 17796 5216
2253 5254 3132
16089 16845 11578
12932 14969 8946
14781 16872 15246
3011 12063 150
2911 11262 1403
8142 11685 5328
6941 15632 3890
4683 11198 1688
15422 18731 19121
1603 13038 18341
7259 15603 236
17620 19404 5930
18888 19259 7884
15753 18438 5648
8172 11378 5375
18033 19481 2433
18538 18782 18531
18768 18986 10972
6562 18071 92
5060 11454 16250
17659 19008 12118
589 10271 17301
3159 7467 18476
7476 14901 2845
2312 5283 18545
14675 18685 2832
3894 18603 10344
14210 16224 19371
8172 10768 19384
11435 16195 10062
17998 18661 9100
15721 19104 15747
11401 16291 320
2766 6034 3840
12495 18672 9697
14080 18720 17574
14172 18671 5037
18462 18615 18412
18124 19125 4619
4585 15467 19212
18203 19135 19011
772 8619 10844
2085 11216 13729
4025 17722 6026
11797 15663 1406
5356 10110 19099
6909 17316 7730
8064 14238 9121
7805 8334 14904
12807 14188 351
10481 15682 16086
11374 15968 4356
16282 19437 8530
15581 16551 16132
6539 7058 7245
9679 15118 16002
14495 17846 12493
633 9061 12433
8084 11940 8992
12873 14987 5998
15483 18791 9870
563 8654 2873
401 15607 3457
4113 6268 11880
10335 18863 2488
13804 16905 11042
4316 8560 13249
2708 7379 11361
15333 15366 18820
16594 17858 19115
18443 18561 250
277 9476 9455
11670 12577 14499
9519 13484 11845
4016 14811 9711
15262 18819 14172
4445 11070 5071
9485 11994 16666
12274 15427 9739
17660 19061 15360
19441 19478 18637
3770 8576 10330
17187 18544 17334
11515 14746 2047
12305 14492 18270
18003 19177 5412
13946 16661 10518
11551 17662 14081
1263 16404 14450
4023 17003 7724
3631 4148 9575
14280 19244 14016
15355 18506 12478
18224 19159 1256
11694 19045 16594
5213 12797 15477
3042 13137 10866
18828 19451 17439
10324 14463 10787
13606 13719 3091
5612 5726 4569
3251 18669 18047
7295 10893 15975
12392 16681 11241
770 3207 18907
6206 9938 3151
4667 18443 7411
8288 13539 12000
16381 19248 15272
13858 18226 7586
15935 16092 14253
11919 12231 57
16862 17292 18257
6625 18138 17682
1792 2342 6053
2447 8024 9767
627 12839 14861
8941 14094 10633
9897 11491 11626
10804 12227 4280
11937 18953 1031
9257 11903 17352
18814 18884 6694
8687 18067 13767
1025 5494 16739
6363 11921 17425
19211 19382 818
13117 18966 11383
9023 16874 5152
10306 18982 4305
16611 19323 4408
15656 18004 15646
13054 18522 1655
10491 12268 10695
17968 19249 6902
12143 17057 13509
15893 16245 3295
12290 16235 18903
12041 14675 8594
14215 18457 19261
12606 14506 18711
4849 11604 14997
499 18578 17086
13529 17547 14620
11646 13021 15561
15766 17321 3142
10369 11602 19325
18965 19051 17722
1885 10050 15211
12910 17615 5962
7908 17990 8314
4452 6312 13393
1208 3509 8935
15524 17362 9699
17325 17999 4981
3115 8913 19295
3305 6513 2531
9722 15047 15020
15250 15937 14024
12508 16047 12235
10151 17334 5883
11326 13236 16242
15522 16510 10058
4895 17514 7663
16510 17690 2980
9867 15562 19147
17672 19401 5370
16896 17292 19357
9983 10687 17506
15321 16558 14049
18087 18093 6724
3896 6352 5033
15805 17638 3473
1130 7518 15991
15260 18501 8169
4315 18002 7614
6304 11095 10763
12967 13626 167
5694 15789 17155
15252 18509 2862
17407 18052 16515
7075 13324 14220
11199 15278 562
11581 13783 5371
16080 19166 7226
659 2210 14611
5188 5929 18779
1268 1770 12601
4156 16774 12837
4400 8129 15023
10919 19435 8834
521 5342 14133
15422 17584 18486
1720 2457 16494
11756 17971 1546
11389 18950 4732
17111 17308 9699
17934 19050 4282
3931 14165 17812
5835 15765 12507
16435 17278 2584
17950 18215 13576
9927 16880 8227
11477 19315 16125
12206 17384 12634
918 4430 551
10053 17235 11892
3090 4086 18688
18579 19363 7504
10387 11133 10143
18423 18685 5568
17168 19312 15849
17048 18053 19118
18348 18903 12874
13793 17749 6055
13727 17985 10632
11860 13475 12474
13198 17529 11370
14254 18166 6492
1388 1604 3219
908 15576 2563
11617 19380 18197
13666 16621 9806
16987 18805 813
12776 14098 14609
9476 13131 13352
18697 19243 3168
5421 15960 10190
7333 15801 7555
16003 16067 17854
4258 14576 8731
7707 14842 5142
16740 17474 14437
19281 19409 15555
18411 19257 14357
15798 16169 16954
17552 19283 11240
10022 19103 14126
15565 18234 18371
2419 12377 14317
10685 10712 1008
16841 18713 18489
4069 15543 4522
19131 19184 10225
14359 15239 732
19492 19499 987
2101 19147 2683
10302 13072 12963
19231 19372 14373
16918 18123 7408
9000 11750 9069
8685 18363 7209
2427 3088 14976
12104 12498 7002
3697 18240 4340
8284 18268 11557
14180 15353 11853
9987 10867 12183
1269 8407 4331
14349 15669 4963
1635 12709 19399
6668 17037 1946
10471 17007 2661
11409 14039 7916
5568 7851 14034
14267 15813 6281
16844 17376 183
18340 18566 12258
7099 11356 438
8818 14509 16368
9215 17023 9906
4434 17876 11479
16455 16485 11776
15982 17960 16005
8400 12233 15503
11587 16984 780
6719 12428 10996
3839 9522 3202
10002 16415 15387
9870 12583 10871
11455 12787 18232
16842 17283 13844
13528 17767 13367
7147 10782 8284
10437 14739 2547
10681 11971 10325
15533 18379 14835
13641 17931 14000
1185 15634 19338
19026 19038 16419
7203 17590 2302
10535 18666 994
13417 17394 7545
3260 5701 2061
10211 10405 14472
70 2699 17740
12854 14360 11209
18252 18841 16197
10689 16832 4976
10877 12478 3443
9413 15767 13365
6335 10547 2383
6034 13454 4664
12703 19480 2381
7579 12988 1415
16119 16310 3815
6223 14877 633
5506 14202 8390
10343 11029 7632
6768 7335 1514
18999 19225 16178
16200 17248 512
9407 18871 11760
14732 15430 16596
4408 4620 19098
219 8953 18547
14577 15398 12515
4118 12346 235
5007 9233 14865
7966 12359 6764
8651 11264 17994
3993 4164 4147
3488 17092 4770
6400 8462 768
18109 18258 3376
8034 9145 2951
8939 17820 14521
16972 19227 19094
5783 10797 16278
12931 17719 812
13765 17234 8722
19194 19438 7799
17978 19099 3674
4240 7938 1254
3483 16241 3255
8236 9396 11888
16167 18689 13009
9768 11828 7758
5257 13645 18634
14141 19390 1244
7346 9666 7263
1756 4925 19294
14164 14594 14368
17835 18396 17505
7372 17074 16129
909 5721 17531
4830 15921 16111
18668 18774 12870
3083 16341 2124
2754 11934 7365
11326 18219 6904
19283 19489 5492
18906 19246 1843
2413 19357 13848
2095 12230 15324
15855 19446 19149
6231 13457 15188
13798 16596 8127
3426 10577 16893
14415 16412 3877
2893 12913 10626
8333 13375 4993
13483 18592 14623
5535 12574 5890
2260 14459 5325
16898 18233 9485
11288 12776 10696
18307 18775 255
3110 14995 7501
2805 19103 1002
12827 15623 552
13364 16201 18872
16036 18577 13133
18725 19407 5606
6710 18361 4472
13302 18047 15543
6142 13959 5507
18177 18202 2205
13250 16376 18472
10615 13596 6253
3069 15230 13073
13062 16566 14609
19356 19377 11081
9275 11229 7718
3687 17945 897
10273 11061 17775
2869 7936 7492
7540 13424 5461
14118 15226 14811
17827 18038 6421
5176 17942 4799
10964 11466 14156
17609 19101 17657
5964 6577 18091
4138 14851 7978
6028 16367 10944
10314 16125 8574
1592 12107 6002
2375 11215 2761
12872 16466 17591
16556 17529 9360
4801 6579 6000
3382 16498 1201
17941 19169 2146
13577 15090 15048
18467 19300 6611
7766 16387 3469
293 1324 4352
16370 17224 18866
231 11810 6743
14085 14546 15059
8505 13515 8455
18671 19219 2411
8094 14725 7969
368 19002 4787
189 4050 7009
11478 16295 14876
5147 18771 19195
11436 16386 9612
13873 18883 16958
14870 15005 3569
4617 4861 16332
17807 19107 5047
13008 17615 9782
10148 13105 95
4210 16761 6829
18128 18911 1282
1662 8175 8683
10315 12082 2120
9345 10567 16139
11198 17759 8480
18699 19326 113
11934 12587 19105
12718 15525 9598
5104 9150 13270
10137 12656 12614
4642 18583 11302
7115 17616 6986
14208 15983 14091
14504 15025 15670
2883 6430 11546
4689 9561 16706
11637 11811 11298
304 345 14992
9948 11671 11512
7580 10654 816
11866 18226 6719
13794 17561 17821
1326 5010 5709
11599 19144 11376
14503 16771 15712
6248 14346 16609
18513 19301 4721
8731 16612 9627
1644 10161 17335
8762 15854 6270
7205 15667 11886
13239 14114 9349
15741 16248 17058
17202 19165 2791
3492 17764 17934
13714 14298 5352
18744 18817 17471
13441 15217 17614
6824 10365 2796
12031 12147 7740
13109 14990 6346
11086 13747 18668
15836 15845 7941
18228 18969 8133
14159 18028 13281
5208 10405 8301
9634 12605 6959
1508 13964 18934
5096 5340 15082
4003 6186 9359
16948 17916 750
14266 19152 10609
13955 19206 16632
10733 17995 4337
3046 13742 3132
9229 18356 2632
9978 13945 14967
1177 5585 5751
18751 19284 3957
12702 13035 17095
16074 19306 891
3092 7005 5696
18845 18955 805
16853 18107 5928
608 2272 11852
1728 14462 13716
8748 14436 17879
14236 16909 13328
9372 12456 718
2576 18466 12717
7255 19490 11865
5654 16327 13999
15638 16573 18938
16793 19381 12437
4410 12983 8654
437 19400 12221
4928 6426 214
11703 12915 11491
19046 19480 17895
15705 17497 10753
1532 9575 5273
1384 4115 19041
2045 19259 12176
803 13743 11677
919 13755 14829
17609 18402 19307
17096 18242 12590
10129 18639 5907
12572 16476 6566
4991 14364 4254
18941 19255 9504
9744 18037 17278
12555 18239 178
4569 17790 9763
3189 8206 7999
2762 9634 5520
15315 16660 10573
8941 18927 2046
11903 14596 12221
3060 3518 2396
13205 15357 2964
15410 16115 9486
10974 14265 8633
13349 16418 10482
18015 18659 6131
10797 12332 2646
5384 9978 19169
7419 13651 15094
14251 18167 8760
7318 12397 18352
13607 13717 7790
842 3495 13179
4996 8281 3910
12967 15998 665
5089 6278 18572
18314 18633 3413
4664 6748 14301
7368 11221 1680
11752 13239 3128
18303 18387 8785
6312 18316 15578
9126 15765 18031
4520 14908 11887
10509 13456 564
13684 15564 14113
9467 12536 13581
18385 19283 3051
9580 16179 12702
17272 19191 11024
7734 12774 12405
8308 18240 10828
4478 17249 6813
825 15656 12663
4579 7316 18227
16387 18174 8083
17018 18868 3142
18592 18836 10558
14608 16001 9253
11432 18894 2359
7071 8721 1655
15583 19219 17488
1702 16175 17204
14325 18218 6697
12518 16319 1476
3673 13708 2484
16606 18993 11741
4997 18009 13719
16786 18446 13487
11680 12471 9451
4303 8372 6522
12527 18944 10441
15600 16109 11357
14062 15990 10333
15449 16314 3206
521 7938 1418
1539 10013 15836
13303 18969 13988
13797 18921 18230
3480 15868 5711
18788 18797 10400
4711 4760 8938
12464 14879 3244
16714 18158 8064
12955 14020 4276
3453 11352 15102
3479 5358 15115
7671 10360 15973
18344 19316 10545
4350 10696 2339
6962 15251 7298
7925 12481 11794
977 16329 4652
9128 13681 14454
8103 19191 8079
9029 19026 9080
2561 2651 3133
3008 3581 2508
11177 15789 1358
14550 16085 3246
757 3344 16706
7305 9494 983
7043 13611 10739
1205 6889 12406
8013 19380 4798
17616 18519 12898
14154 17096 17001
8582 15405 5547
4990 15746 11578
10518 16063 19207
11784 13949 15274
12817 18191 6040
12948 13833 12689
15223 16309 3805
1709 13320 17853
12814 15922 1818
13356 18291 19012
13363 15386 9830
15452 17867 8770
17596 17740 1772
2352 15017 17006
1181 2112 18106
10509 11865 13017
12538 18592 4161
6078 17942 6751
17682 17719 6883
3590 14374 13653
9110 14306 12973
4085 5171 12293
16037 16140 10253
6841 10565 17211
11590 13304 16992
7691 10631 6544
19120 19378 3719
17237 18263 10199
11415 15040 11329
2924 13732 15308
10069 17854 12966
16060 18510 2296
9262 9901 444
11377 12277 18981
11739 12794 15261
16378 16459 7425
9170 16833 1053
7550 18525 16511
1490 14400 10295
18980 19147 17498
7485 16883 12718
12400 18311 12064
17161 17596 18146
2788 9937 3160
9749 15898 14769
8965 12794 6908
5355 18175 14177
8097 15554 2011
15592 17043 9369
7752 15390 3989
16141 17723 17080
2735 9817 19100
4955 10514 11024
11380 11395 1653
14663 14884 1261
18280 19233 14557
6191 9610 17433
636 5409 1088
2012 4709 9325
18418 19081 12900
6256 18846 11052
1270 4082 12510
3338 5873 8733
9218 14948 13831
14217 17914 12255
8969 18042 7764
12708 17346 12488
10867 13145 6922
12423 16721 7436
18383 18915 16450
10475 16638 6909
16790 19297 18699
15413 18093 4903
17583 18006 12806
1118 1202 9393
17611 18545 11469
6399 18103 16108
12342 17124 1459
5388 18755 15608
2258 4060 17596
7590 14445 13140
10462 11056 13317
17733 18210 19055
13932 15521 4619
16177 17022 8839
9739 18472 6764
16069 19265 11872
16549 17247 13852
11368 15167 1164
14158 16784 11290
3113 8190 13926
15422 16431 12310
12744 16470 2759
2187 8549 3180
4927 17922 1627
12221 14849 12651
18943 19348 18553
1846 8737 12953
3389 5809 15148
11523 15576 11427
4462 17307 11991
6527 9036 968
15515 15700 19131
4160 15802 11125
15957 15995 9282
4882 10864 18334
13177 18177 10042
3629 13668 1481
5841 7898 11258
2151 11663 2237
4850 11159 12164
1773 5432 7307
7079 19438 16816
622 16853 9753
4610 7318 268
11915 17945 8186
15659 16886 12582
241 711 9071
893 13309 12024
1072 12456 12620
3849 15162 7280
8298 17382 5223
18454 18931 7251
19494 19499 4130
4784 13464 16953
18854 18899 3713
17770 18965 18568
18391 19375 459
10857 19487 10263
6805 14829 13020
18597 19448 9157
12236 12648 11766
5105 16658 12803
4463 10525 17455
17489 17722 5266
4122 9244 623
674 16595 5828
13952 18638 18836
17425 18997 12058
19430 19447 4667
19336 19462 9960
12661 17590 12627
516 4681 17966
17697 19315 13550
13555 18719 15643
5210 8531 1190
3081 11351 6203
6966 11317 15172
13845 18000 11356
11487 18926 10505
10810 16461 4443
10820 11531 4293
6981 12798 15151
3009 13883 16548
10447 16220 15362
1875 17465 6137
5365 6180 18833
6419 16301 14467
4697 5342 6224
11423 13852 2154
2984 3195 13071
3654 11003 10193
3316 3976 7080
14673 16201 14255
17292 18728 12525
19443 19477 606
9147 12210 18407
563 2866 12825
14304 18514 5479
16556 18380 13926
11411 18588 13434
13281 16005 18854
12995 13265 3542
